B  N 
 1.0000000000000000
    27.1948420852543862    0.0000000000000000    0.0000000000000000
     0.0000000000000000   27.1948420852543862    0.0000000000000000
     0.0000000000000000    0.0000000000000000    4.3499999999999970
 B   N  
  18  18
Direct
  0.6322832113291730  0.4999999999999998  0.0000000000000000
  0.6243055575398867  0.5452435228983833  0.4999999999999999
  0.6013348189566461  0.5850300092119385  0.0000000000000002
  0.5661416056645865  0.6145606215052490  0.5000000000000002
  0.5229707385832402  0.6302735321103219  0.0000000000000004
  0.4770292614167597  0.6302735321103219  0.5000000000000004
  0.4338583943354136  0.6145606215052490  0.0000000000000004
  0.3986651810433536  0.5850300092119385  0.5000000000000002
  0.3756944424601132  0.5452435228983836  0.0000000000000007
  0.3677167886708270  0.4999999999999998  0.5000000000000009
  0.3756944424601132  0.4547564771016164  0.0000000000000014
  0.3986651810433536  0.4149699907880616  0.5000000000000009
  0.4338583943354133  0.3854393784947507  0.0000000000000007
  0.4770292614167597  0.3697264678896781  0.5000000000000002
  0.5229707385832402  0.3697264678896781  0.0000000000000014
  0.5661416056645865  0.3854393784947507  0.5000000000000016
  0.6013348189566461  0.4149699907880615  0.0000000000000014
  0.6243055575398867  0.4547564771016163  0.5000000000000016
  0.6243055575398867  0.5452435228983833  0.8333333333333334
  0.6013348189566461  0.5850300092119385  0.3333333333333333
  0.5661416056645865  0.6145606215052490  0.8333333333333334
  0.5229707385832402  0.6302735321103219  0.3333333333333334
  0.4770292614167597  0.6302735321103219  0.8333333333333334
  0.4338583943354133  0.6145606215052490  0.3333333333333339
  0.3986651810433536  0.5850300092119385  0.8333333333333338
  0.3756944424601132  0.5452435228983836  0.3333333333333334
  0.3677167886708270  0.4999999999999998  0.8333333333333344
  0.3756944424601132  0.4547564771016164  0.3333333333333341
  0.3986651810433536  0.4149699907880616  0.8333333333333344
  0.4338583943354136  0.3854393784947507  0.3333333333333341
  0.4770292614167597  0.3697264678896781  0.8333333333333348
  0.5229707385832402  0.3697264678896781  0.3333333333333334
  0.5661416056645863  0.3854393784947507  0.8333333333333344
  0.6013348189566461  0.4149699907880616  0.3333333333333349
  0.6243055575398867  0.4547564771016164  0.8333333333333344
  0.6322832113291730  0.4999999999999998  0.3333333333333349
