Generated by ATOMKIT code
   1.00000000000000
     3.5520489303344696    0.0000000000000000    0.0000000000000000
     0.0000000000000000    3.5520489303344696    0.0000000000000000
     0.0000000000000000    0.0000000000000000    5.1318816628663919
   Hf   O
     2     4
Direct
 -0.0000000000000000 -0.0000000000000000 -0.0000000000000000
  0.5000000000000000  0.5000000000000000  0.5000000000000000
  0.5000000000000000 -0.0000000000000000  0.2979320480116446
  0.5000000000000000  0.0000000000000000  0.7979320480116445
 -0.0000000000000000  0.5000000000000000  0.2020679519883555
 -0.0000000000000000  0.5000000000000000  0.7020679519883555

  0.00000000E+00  0.00000000E+00  0.00000000E+00
  0.00000000E+00  0.00000000E+00  0.00000000E+00
  0.00000000E+00  0.00000000E+00  0.00000000E+00
  0.00000000E+00  0.00000000E+00  0.00000000E+00
  0.00000000E+00  0.00000000E+00  0.00000000E+00
  0.00000000E+00  0.00000000E+00  0.00000000E+00
