Generated by ATOMKIT code
   1.00000000000000
     3.5886231535844639    0.0000000000000000   -0.0000000000000000
     0.0000000000000000    3.5886231535844639    0.0000000000000000
    -0.0000000000000000   -0.0000000000000000    5.2295131772332715
   Hf   O
     2     4
Direct
 -0.0000000000000000  0.0000000000000000 -0.0000000000000000
  0.5000000000000000  0.5000000000000000  0.5000000000000000
  0.5000000000000000 -0.0000000000000000  0.3052459481183488
  0.5000000000000000 -0.0000000000000000  0.8052459481183488
 -0.0000000000000000  0.5000000000000000  0.1947540518816513
 -0.0000000000000000  0.5000000000000000  0.6947540518816512

  0.00000000E+00  0.00000000E+00  0.00000000E+00
  0.00000000E+00  0.00000000E+00  0.00000000E+00
  0.00000000E+00  0.00000000E+00  0.00000000E+00
  0.00000000E+00  0.00000000E+00  0.00000000E+00
  0.00000000E+00  0.00000000E+00  0.00000000E+00
  0.00000000E+00  0.00000000E+00  0.00000000E+00
