5
Lattice="4.00879830562 -0 0 -0 4.00879830562 -0 0 0 4.00879830562" Properties=species:S:1:pos:R:3:force:R:3:bec:R:9 energy=-3729.32222829 frame_id=14::0.no-move structure_id=14::0.no-move total_charge=0 phase_label=cubic
Ba 0.0000000000 0.0000000000 0.0000000000 0.0000000000 0.0000000000 0.0000000000 2.7199665100 0.0000000000 -0.0000000000 0.0000000000 2.7199665100 0.0000000000 0.0000000000 0.0000000000 2.7199665100
Ti 2.0043991478 2.0043991478 2.0043991478 0.0000000000 0.0000000000 0.0000000000 7.4637452700 -0.0000000000 0.0000000000 0.0000000000 7.4637452700 -0.0000000000 -0.0000000000 0.0000000000 7.4637452700
O 2.0043991478 2.0043991478 0.0000000000 0.0000000000 0.0000000000 0.0000000000 -2.1476785400 0.0000000000 -0.0000000000 0.0000000000 -2.1476785400 -0.0000000000 0.0000000000 0.0000000000 -5.8883547100
O 2.0043991478 0.0000000000 2.0043991478 0.0000000000 0.0000000000 0.0000000000 -2.1476785400 -0.0000000000 -0.0000000000 0.0000000000 -5.8883547100 0.0000000000 0.0000000000 0.0000000000 -2.1476785400
O 0.0000000000 2.0043991478 2.0043991478 0.0000000000 0.0000000000 0.0000000000 -5.8883547100 0.0000000000 -0.0000000000 0.0000000000 -2.1476785400 0.0000000000 -0.0000000000 0.0000000000 -2.1476785400
5
Lattice="4.00879830562 0 0 0 4.00879830562 0 0 0 4.00879830562" Properties=species:S:1:pos:R:3:force:R:3 energy=-3729.32186279 frame_id=14::disp-001 structure_id=14::disp-001 total_charge=0 phase_label=cubic
Ba 0.0105835442 0.0000000000 0.0000000000 -0.0693887708 0.0000000000 0.0000000000
Ti 2.0043991478 2.0043991478 2.0043991478 0.0373671132 0.0000000000 0.0000000000
O 2.0043991478 2.0043991478 0.0000000000 0.0083428332 0.0000000000 0.0000000000
O 2.0043991478 0.0000000000 2.0043991478 0.0083428332 0.0000000000 0.0000000000
O 0.0000000000 2.0043991478 2.0043991478 0.0153359913 0.0000000000 0.0000000000
5
Lattice="4.00879830562 0 0 0 4.00879830562 0 0 0 4.00879830562" Properties=species:S:1:pos:R:3:force:R:3 energy=-3729.32227424 frame_id=14::disp-002 structure_id=14::disp-002 total_charge=0 phase_label=cubic
Ba 0.0000000000 0.0000000000 0.0000000000 0.0373946837 0.0000000000 0.0000000000
Ti 2.0149826920 2.0043991478 2.0043991478 0.0160179799 0.0000000000 0.0000000000
O 2.0043991478 2.0043991478 0.0000000000 0.0080471553 0.0000000000 0.0000000000
O 2.0043991478 0.0000000000 2.0043991478 0.0080471553 0.0000000000 0.0000000000
O 0.0000000000 2.0043991478 2.0043991478 -0.0695069743 0.0000000000 0.0000000000
5
Lattice="4.00879830562 0 0 0 4.00879830562 0 0 0 4.00879830562" Properties=species:S:1:pos:R:3:force:R:3 energy=-3729.32196473 frame_id=14::disp-003 structure_id=14::disp-003 total_charge=0 phase_label=cubic
Ba 0.0000000000 0.0000000000 0.0000000000 0.0058401787 0.0000000000 0.0107719886
Ti 2.0043991478 2.0043991478 2.0043991478 0.0056787334 0.0000000000 -0.0492953695
O 2.0118828437 2.0043991478 0.0074836959 -0.0415240977 0.0000000000 -0.0300701796
O 2.0043991478 0.0000000000 2.0043991478 -0.0042860675 0.0000000000 0.0342956096
O 0.0000000000 2.0043991478 2.0043991478 0.0342912531 0.0000000000 0.0342979508
5
Lattice="4.00879830562 0 0 0 4.00879830562 0 0 0 4.00879830562" Properties=species:S:1:pos:R:3:force:R:3:bec:R:9 energy=-3729.07020326 frame_id=34::0.no-move structure_id=34::0.no-move total_charge=0 phase_label=cubic
Ba 0.0000000000 0.0000000000 0.0000000000 1.0850436462 0.0000000000 0.0000000000 2.9032250400 -0.0000000000 -0.0000000000 0.0000000000 2.6827343000 0.0000000000 0.0000000000 0.0000000000 2.6827343000
Ti 2.3050590280 2.0043991478 2.0043991478 -3.4799214988 0.0000000000 0.0000000000 4.6910877100 -0.0000000000 0.0000000000 0.0000000000 6.3793519400 0.0000000000 0.0000000000 0.0000000000 6.3793519400
O 2.0043991478 2.0043991478 0.0000000000 0.5359329955 0.0000000000 0.0000000000 -1.8781574600 0.0000000000 -0.0000000000 0.0000000000 -2.2275137600 0.0000000000 0.0000000000 0.0000000000 -5.0910369900
O 2.0043991478 0.0000000000 2.0043991478 0.5359329955 0.0000000000 0.0000000000 -1.8781574600 0.0000000000 -0.0000000000 0.0000000000 -5.0910369900 0.0000000000 0.0000000000 0.0000000000 -2.2275137600
O 0.0000000000 2.0043991478 2.0043991478 1.3230118617 0.0000000000 0.0000000000 -3.8379978300 0.0000000000 -0.0000000000 0.0000000000 -1.7435354900 0.0000000000 0.0000000000 0.0000000000 -1.7435354900
5
Lattice="4.00879830562 0 0 0 4.00879830562 0 0 0 4.00879830562" Properties=species:S:1:pos:R:3:force:R:3 energy=-3729.07796341 frame_id=34::disp-001 structure_id=34::disp-001 total_charge=0 phase_label=cubic
Ba 0.0074836959 0.0074836959 0.0000000000 1.0421365031 -0.0530911009 0.0000000000
Ti 2.3050590280 2.0043991478 2.0043991478 -3.4525942537 0.0290227154 0.0000000000
O 2.0043991478 2.0043991478 0.0000000000 0.5403719332 0.0061513329 0.0000000000
O 2.0043991478 0.0000000000 2.0043991478 0.5403638257 0.0101679869 0.0000000000
O 0.0000000000 2.0043991478 2.0043991478 1.3297219917 0.0077490657 0.0000000000
5
Lattice="4.00879830562 0 0 0 4.00879830562 0 0 0 4.00879830562" Properties=species:S:1:pos:R:3:force:R:3 energy=-3729.06172231 frame_id=34::disp-002 structure_id=34::disp-002 total_charge=0 phase_label=cubic
Ba -0.0074836959 -0.0074836959 0.0000000000 1.1280282980 0.0534370957 0.0000000000
Ti 2.3050590280 2.0043991478 2.0043991478 -3.5071547559 -0.0293884732 0.0000000000
O 2.0043991478 2.0043991478 0.0000000000 0.5315028693 -0.0061999434 0.0000000000
O 2.0043991478 0.0000000000 2.0043991478 0.5315069466 -0.0101129253 0.0000000000
O 0.0000000000 2.0043991478 2.0043991478 1.3161166419 -0.0077357538 0.0000000000
5
Lattice="4.00879830562 0 0 0 4.00879830562 0 0 0 4.00879830562" Properties=species:S:1:pos:R:3:force:R:3 energy=-3729.04318376 frame_id=34::disp-003 structure_id=34::disp-003 total_charge=0 phase_label=cubic
Ba 0.0000000000 0.0000000000 0.0000000000 1.1123189773 0.0293202699 0.0000000000
Ti 2.3125427239 2.0118828437 2.0043991478 -3.7359881688 -0.0084065908 0.0000000000
O 2.0043991478 2.0043991478 0.0000000000 0.5582369132 0.0054325452 0.0000000000
O 2.0043991478 0.0000000000 2.0043991478 0.5583307101 -0.0290552888 0.0000000000
O 0.0000000000 2.0043991478 2.0043991478 1.5071015683 0.0027090645 0.0000000000
5
Lattice="4.00879830562 0 0 0 4.00879830562 0 0 0 4.00879830562" Properties=species:S:1:pos:R:3:force:R:3 energy=-3729.09530642 frame_id=34::disp-004 structure_id=34::disp-004 total_charge=0 phase_label=cubic
Ba 0.0000000000 0.0000000000 0.0000000000 1.0578487671 -0.0290166578 0.0000000000
Ti 2.2975753321 1.9969154519 2.0043991478 -3.2352830847 0.0076775284 0.0000000000
O 2.0043991478 2.0043991478 0.0000000000 0.5139238418 -0.0054886302 0.0000000000
O 2.0043991478 0.0000000000 2.0043991478 0.5140159203 0.0305835055 0.0000000000
O 0.0000000000 2.0043991478 2.0043991478 1.1494945555 -0.0037557459 0.0000000000
5
Lattice="4.00879830562 0 0 0 4.00879830562 0 0 0 4.00879830562" Properties=species:S:1:pos:R:3:force:R:3 energy=-3729.07316827 frame_id=34::disp-005 structure_id=34::disp-005 total_charge=0 phase_label=cubic
Ba 0.0000000000 0.0000000000 0.0000000000 1.0885830027 0.0049824929 0.0082571133
Ti 2.3050590280 2.0043991478 2.0043991478 -3.4619257234 0.0044237303 -0.0243533084
O 2.0105095599 2.0105095599 0.0061104121 0.4998334769 -0.0344141343 -0.0334945956
O 2.0043991478 0.0000000000 2.0043991478 0.5324722247 0.0274673981 0.0274645929
O 0.0000000000 2.0043991478 2.0043991478 1.3410370191 -0.0024594871 0.0221261978
5
Lattice="4.00879830562 0 0 0 4.00879830562 0 0 0 4.00879830562" Properties=species:S:1:pos:R:3:force:R:3 energy=-3729.06661983 frame_id=34::disp-006 structure_id=34::disp-006 total_charge=0 phase_label=cubic
Ba 0.0000000000 0.0000000000 0.0000000000 1.0814560216 -0.0050022839 -0.0082329622
Ti 2.3050590280 2.0043991478 2.0043991478 -3.4981181312 -0.0044780208 0.0244710653
O 1.9982887357 1.9982887357 -0.0061104121 0.5718614726 0.0344903079 0.0331191225
O 2.0043991478 0.0000000000 2.0043991478 0.5393814149 -0.0274516305 -0.0274599821
O 0.0000000000 2.0043991478 2.0043991478 1.3054192221 0.0024416273 -0.0218972435
5
Lattice="4.00879830562 0 0 0 4.00879830562 0 0 0 4.00879830562" Properties=species:S:1:pos:R:3:force:R:3 energy=-3729.07912877 frame_id=34::disp-007 structure_id=34::disp-007 total_charge=0 phase_label=cubic
Ba 0.0000000000 0.0000000000 0.0000000000 1.0918319622 0.0076828684 0.0000000000
Ti 2.3050590280 2.0043991478 2.0043991478 -3.3055741539 0.0039044597 0.0000000000
O 2.0043991478 2.0043991478 0.0000000000 0.5579080151 -0.0030323701 0.0000000000
O 2.0043991478 0.0000000000 2.0043991478 0.5579181533 0.0271260501 0.0000000000
O 0.0074836959 2.0118828437 2.0043991478 1.0979160232 -0.0356810081 0.0000000000
5
Lattice="4.00879830562 0 0 0 4.00879830562 0 0 0 4.00879830562" Properties=species:S:1:pos:R:3:force:R:3 energy=-3729.05931029 frame_id=34::disp-008 structure_id=34::disp-008 total_charge=0 phase_label=cubic
Ba 0.0000000000 0.0000000000 0.0000000000 1.0783370854 -0.0076948316 0.0000000000
Ti 2.3050590280 2.0043991478 2.0043991478 -3.6631687762 -0.0025066556 0.0000000000
O 2.0043991478 2.0043991478 0.0000000000 0.5142248167 0.0029714826 0.0000000000
O 2.0043991478 0.0000000000 2.0043991478 0.5142291086 -0.0268045079 0.0000000000
O -0.0074836959 1.9969154519 2.0043991478 1.5563777655 0.0340345125 0.0000000000
5
Lattice="4.00879830562 0 0 0 4.00879830562 0 0 0 4.00879830562" Properties=species:S:1:pos:R:3:force:R:3:bec:R:9 energy=-3729.32250035 frame_id=36::0.no-move structure_id=36::0.no-move total_charge=0 phase_label=cubic
Ba 0.0000000000 0.0000000000 0.0000000000 0.0500845787 0.0500845787 0.0000000000 2.7205424400 0.0000487900 0.0000000000 0.0000487900 2.7205424400 -0.0000000000 0.0000000000 0.0000000000 2.7198079200
Ti 2.0185723769 2.0185723769 2.0043991478 0.0209566838 0.0209566838 0.0000000000 7.4409834800 -0.0074733900 -0.0000000000 -0.0074733900 7.4409834800 0.0000000000 0.0000000000 0.0000000000 7.4571738800
O 2.0043991478 2.0043991478 0.0000000000 0.0108287097 0.0108287097 0.0000000000 -2.1457752900 -0.0002198600 -0.0000000000 -0.0002198600 -2.1457752900 0.0000000000 0.0000000000 0.0000000000 -5.8834248900
O 2.0043991478 0.0000000000 2.0043991478 0.0108664993 -0.0927364714 0.0000000000 -2.1441633900 0.0051778200 -0.0000000000 0.0024666400 -5.8715872400 0.0000000000 0.0000000000 0.0000000000 -2.1467784600
O 0.0000000000 2.0043991478 2.0043991478 -0.0927364714 0.0108664993 0.0000000000 -5.8715872400 0.0024666400 -0.0000000000 0.0051778200 -2.1441633900 0.0000000000 0.0000000000 0.0000000000 -2.1467784600
5
Lattice="4.00879830562 0 0 0 4.00879830562 0 0 0 4.00879830562" Properties=species:S:1:pos:R:3:force:R:3 energy=-3729.32250722 frame_id=36::disp-001 structure_id=36::disp-001 total_charge=0 phase_label=cubic
Ba 0.0074836959 0.0000000000 0.0074836959 0.0010087351 0.0500760472 -0.0490931329
Ti 2.0185723769 2.0185723769 2.0043991478 0.0474357576 0.0209575798 0.0264637620
O 2.0043991478 2.0043991478 0.0000000000 0.0167233811 0.0108359956 0.0108153464
O 2.0043991478 0.0000000000 2.0043991478 0.0167739135 -0.0927391156 0.0059096216
O 0.0000000000 2.0043991478 2.0043991478 -0.0819417873 0.0108694930 0.0059044029
5
Lattice="4.00879830562 0 0 0 4.00879830562 0 0 0 4.00879830562" Properties=species:S:1:pos:R:3:force:R:3 energy=-3729.32175799 frame_id=36::disp-002 structure_id=36::disp-002 total_charge=0 phase_label=cubic
Ba -0.0074836959 0.0000000000 -0.0074836959 0.0991543132 0.0500976583 0.0491019078
Ti 2.0185723769 2.0185723769 2.0043991478 -0.0055067004 0.0209443775 -0.0264744852
O 2.0043991478 2.0043991478 0.0000000000 0.0049369472 0.0108274962 -0.0108136544
O 2.0043991478 0.0000000000 2.0043991478 0.0049627138 -0.0927392192 -0.0059103941
O 0.0000000000 2.0043991478 2.0043991478 -0.1035472738 0.0108696872 -0.0059033741
5
Lattice="4.00879830562 0 0 0 4.00879830562 0 0 0 4.00879830562" Properties=species:S:1:pos:R:3:force:R:3 energy=-3729.32272928 frame_id=36::disp-003 structure_id=36::disp-003 total_charge=0 phase_label=cubic
Ba 0.0000000000 0.0000000000 0.0000000000 0.0765301693 0.0500818260 0.0264651365
Ti 2.0260560728 2.0185723769 2.0118828437 0.0307979237 0.0207294180 0.0110723382
O 2.0043991478 2.0043991478 0.0000000000 0.0166863962 0.0108369132 -0.0489986073
O 2.0043991478 0.0000000000 2.0043991478 0.0167261690 -0.0925605912 0.0057175834
O 0.0000000000 2.0043991478 2.0043991478 -0.1407406582 0.0109124339 0.0057435493
5
Lattice="4.00879830562 0 0 0 4.00879830562 0 0 0 4.00879830562" Properties=species:S:1:pos:R:3:force:R:3 energy=-3729.32242497 frame_id=36::disp-004 structure_id=36::disp-004 total_charge=0 phase_label=cubic
Ba 0.0000000000 0.0000000000 0.0000000000 0.0236302871 0.0500786842 -0.0264487242
Ti 2.0110886810 2.0185723769 1.9969154519 0.0100996766 0.0210470401 -0.0112982574
O 2.0043991478 2.0043991478 0.0000000000 0.0050970703 0.0108390287 0.0491428576
O 2.0043991478 0.0000000000 2.0043991478 0.0051103533 -0.0928018346 -0.0057056232
O 0.0000000000 2.0043991478 2.0043991478 -0.0439373872 0.0108370816 -0.0056902528
5
Lattice="4.00879830562 0 0 0 4.00879830562 0 0 0 4.00879830562" Properties=species:S:1:pos:R:3:force:R:3 energy=-3729.32231715 frame_id=36::disp-005 structure_id=36::disp-005 total_charge=0 phase_label=cubic
Ba 0.0000000000 0.0000000000 0.0000000000 0.0559131751 0.0500837326 0.0107740729
Ti 2.0185723769 2.0185723769 2.0043991478 0.0267160400 0.0209425859 -0.0491777971
O 2.0118828437 2.0043991478 0.0074836959 -0.0307310939 0.0108148992 -0.0301604991
O 2.0043991478 0.0000000000 2.0043991478 0.0065900438 -0.0927122669 0.0342739944
O 0.0000000000 2.0043991478 2.0043991478 -0.0584881649 0.0108710492 0.0342902289
5
Lattice="4.00879830562 0 0 0 4.00879830562 0 0 0 4.00879830562" Properties=species:S:1:pos:R:3:force:R:3 energy=-3729.32215553 frame_id=36::disp-006 structure_id=36::disp-006 total_charge=0 phase_label=cubic
Ba 0.0000000000 0.0000000000 0.0000000000 0.0442360021 0.0500759647 -0.0107572021
Ti 2.0185723769 2.0185723769 2.0043991478 0.0151445727 0.0209352972 0.0491402343
O 1.9969154519 2.0043991478 -0.0074836959 0.0523949180 0.0108365724 0.0301539213
O 2.0043991478 0.0000000000 2.0043991478 0.0151499989 -0.0927109370 -0.0342741988
O 0.0000000000 2.0043991478 2.0043991478 -0.1269254916 0.0108631027 -0.0342627547
5
Lattice="4.00879830562 0 0 0 4.00879830562 0 0 0 4.00879830562" Properties=species:S:1:pos:R:3:force:R:3 energy=-3729.32227485 frame_id=36::disp-007 structure_id=36::disp-007 total_charge=0 phase_label=cubic
Ba 0.0000000000 0.0000000000 0.0000000000 0.0559239389 0.0500798611 0.0058469227
Ti 2.0185723769 2.0185723769 2.0043991478 0.0267702106 0.0209917000 0.0057167386
O 2.0043991478 2.0043991478 0.0000000000 0.0065513097 0.0108415598 0.0342610358
O 2.0118828437 0.0000000000 2.0118828437 -0.0307032484 -0.0927428425 -0.0415464009
O 0.0000000000 2.0043991478 2.0043991478 -0.0585422108 0.0108297215 -0.0042782962
5
Lattice="4.00879830562 0 0 0 4.00879830562 0 0 0 4.00879830562" Properties=species:S:1:pos:R:3:force:R:3 energy=-3729.32211251 frame_id=36::disp-008 structure_id=36::disp-008 total_charge=0 phase_label=cubic
Ba 0.0000000000 0.0000000000 0.0000000000 0.0442270806 0.0500831597 -0.0058596649
Ti 2.0185723769 2.0185723769 2.0043991478 0.0151336508 0.0209054041 -0.0057101289
O 2.0043991478 2.0043991478 0.0000000000 0.0151122137 0.0108343116 -0.0342676450
O 1.9969154519 0.0000000000 1.9969154519 0.0524570125 -0.0927444738 0.0415580655
O 0.0000000000 2.0043991478 2.0043991478 -0.1269299576 0.0109215984 0.0042793733
5
Lattice="4.00879830562 0 0 0 4.00879830562 0 0 0 4.00879830562" Properties=species:S:1:pos:R:3:force:R:3 energy=-3729.32128332 frame_id=36::disp-009 structure_id=36::disp-009 total_charge=0 phase_label=cubic
Ba 0.0000000000 0.0000000000 0.0000000000 0.0500789370 0.0652989627 0.0000000000
Ti 2.0185723769 2.0185723769 2.0043991478 0.0210986903 -0.0481433457 0.0000000000
O 2.0043991478 2.0043991478 0.0000000000 0.0108271314 0.0592618667 0.0000000000
O 2.0043991478 0.0105835442 2.0043991478 0.0108577477 -0.1356945899 0.0000000000
O 0.0000000000 2.0043991478 2.0043991478 -0.0928625064 0.0592771062 0.0000000000
5
Lattice="4.00879830562 0 0 0 4.00879830562 0 0 0 4.00879830562" Properties=species:S:1:pos:R:3:force:R:3 energy=-3729.32324354 frame_id=36::disp-010 structure_id=36::disp-010 total_charge=0 phase_label=cubic
Ba 0.0000000000 0.0000000000 0.0000000000 0.0500819141 0.0348857915 0.0000000000
Ti 2.0185723769 2.0185723769 2.0043991478 0.0207410054 0.0888646347 0.0000000000
O 2.0043991478 2.0043991478 0.0000000000 0.0108283297 -0.0375030257 0.0000000000
O 2.0043991478 -0.0105835442 2.0043991478 0.0108478943 -0.0488044062 0.0000000000
O 0.0000000000 2.0043991478 2.0043991478 -0.0924991435 -0.0374429943 0.0000000000
5
Lattice="4.04849196301 0 0 0 4.04849196301 0 0 0 4.04849196301" Properties=species:S:1:pos:R:3:force:R:3:bec:R:9 energy=-3729.19543384 frame_id=79::0.no-move structure_id=79::0.no-move total_charge=0 phase_label=cubic
Ba 0.0000000000 0.0000000000 0.0000000000 0.8114769007 0.0000000000 0.0000000000 2.8348818000 0.0000000000 0.0000000000 0.0000000000 2.6768185400 0.0000000000 0.0000000000 -0.0000000000 2.6768185400
Ti 2.2671555005 2.0242459765 2.0242459765 -1.4250925263 0.0000000000 0.0000000000 5.1066629000 -0.0000000000 0.0000000000 0.0000000000 6.7283920900 -0.0000000000 0.0000000000 0.0000000000 6.7283920900
O 2.0242459765 2.0242459765 0.0000000000 0.4129615183 0.0000000000 0.0000000000 -1.8856304100 0.0000000000 0.0000000000 0.0000000000 -2.1900853700 -0.0000000000 0.0000000000 0.0000000000 -5.3699649200
O 2.0242459765 0.0000000000 2.0242459765 0.4129615183 0.0000000000 0.0000000000 -1.8856304100 0.0000000000 0.0000000000 0.0000000000 -5.3699649200 -0.0000000000 0.0000000000 0.0000000000 -2.1900853700
O 0.0000000000 2.0242459765 2.0242459765 -0.2123074109 0.0000000000 0.0000000000 -4.1702838800 0.0000000000 0.0000000000 0.0000000000 -1.8451603400 -0.0000000000 0.0000000000 0.0000000000 -1.8451603400
5
Lattice="4.04849196301 0 0 0 4.04849196301 0 0 0 4.04849196301" Properties=species:S:1:pos:R:3:force:R:3 energy=-3729.20119495 frame_id=79::disp-001 structure_id=79::disp-001 total_charge=0 phase_label=cubic
Ba 0.0074836959 0.0074836959 0.0000000000 0.7728077186 -0.0450719287 0.0000000000
Ti 2.2671555005 2.0242459765 2.0242459765 -1.3995424980 0.0259726651 0.0000000000
O 2.0242459765 2.0242459765 0.0000000000 0.4156921899 0.0038206691 0.0000000000
O 2.0242459765 0.0000000000 2.0242459765 0.4156839587 0.0102836574 0.0000000000
O 0.0000000000 2.0242459765 2.0242459765 -0.2046413693 0.0049949370 0.0000000000
5
Lattice="4.04849196301 0 0 0 4.04849196301 0 0 0 4.04849196301" Properties=species:S:1:pos:R:3:force:R:3 energy=-3729.18904889 frame_id=79::disp-002 structure_id=79::disp-002 total_charge=0 phase_label=cubic
Ba -0.0074836959 -0.0074836959 0.0000000000 0.8501850272 0.0453024919 0.0000000000
Ti 2.2671555005 2.0242459765 2.0242459765 -1.4505573913 -0.0262441811 0.0000000000
O 2.0242459765 2.0242459765 0.0000000000 0.4102558828 -0.0038486300 0.0000000000
O 2.0242459765 0.0000000000 2.0242459765 0.4102597506 -0.0102319591 0.0000000000
O 0.0000000000 2.0242459765 2.0242459765 -0.2201432693 -0.0049777217 0.0000000000
5
Lattice="4.04849196301 0 0 0 4.04849196301 0 0 0 4.04849196301" Properties=species:S:1:pos:R:3:force:R:3 energy=-3729.1841893 frame_id=79::disp-003 structure_id=79::disp-003 total_charge=0 phase_label=cubic
Ba 0.0000000000 0.0000000000 0.0000000000 0.8369997684 0.0262083772 0.0000000000
Ti 2.2746391964 2.0317296724 2.0242459765 -1.5802302385 0.0033825386 0.0000000000
O 2.0242459765 2.0242459765 0.0000000000 0.4327507632 0.0071080269 0.0000000000
O 2.0242459765 0.0000000000 2.0242459765 0.4328604863 -0.0449922991 0.0000000000
O 0.0000000000 2.0242459765 2.0242459765 -0.1223807793 0.0082933564 0.0000000000
5
Lattice="4.04849196301 0 0 0 4.04849196301 0 0 0 4.04849196301" Properties=species:S:1:pos:R:3:force:R:3 energy=-3729.20554508 frame_id=79::disp-004 structure_id=79::disp-004 total_charge=0 phase_label=cubic
Ba 0.0000000000 0.0000000000 0.0000000000 0.7860250141 -0.0259915079 0.0000000000
Ti 2.2596718046 2.0167622806 2.0242459765 -1.2790857082 -0.0046236027 0.0000000000
O 2.0242459765 2.0242459765 0.0000000000 0.3935246481 -0.0071584258 0.0000000000
O 2.0242459765 0.0000000000 2.0242459765 0.3936332033 0.0463705723 0.0000000000
O 0.0000000000 2.0242459765 2.0242459765 -0.2940971573 -0.0085970359 0.0000000000
5
Lattice="4.04849196301 0 0 0 4.04849196301 0 0 0 4.04849196301" Properties=species:S:1:pos:R:3:force:R:3 energy=-3729.19767668 frame_id=79::disp-005 structure_id=79::disp-005 total_charge=0 phase_label=cubic
Ba 0.0000000000 0.0000000000 0.0000000000 0.8136535618 0.0031070999 0.0083770899
Ti 2.2671555005 2.0242459765 2.0242459765 -1.4091497090 0.0058228958 -0.0373332154
O 2.0303563886 2.0303563886 0.0061104121 0.3787427272 -0.0328334709 -0.0209859134
O 2.0242459765 0.0000000000 2.0242459765 0.4096175930 0.0266293794 0.0266217424
O 0.0000000000 2.0242459765 2.0242459765 -0.1928641730 -0.0027259042 0.0233202965
5
Lattice="4.04849196301 0 0 0 4.04849196301 0 0 0 4.04849196301" Properties=species:S:1:pos:R:3:force:R:3 energy=-3729.19263068 frame_id=79::disp-006 structure_id=79::disp-006 total_charge=0 phase_label=cubic
Ba 0.0000000000 0.0000000000 0.0000000000 0.8092528351 -0.0031219662 -0.0083599635
Ti 2.2671555005 2.0242459765 2.0242459765 -1.4412430484 -0.0058592349 0.0373682745
O 2.0181355644 2.0181355644 -0.0061104121 0.4470673139 0.0328836714 0.0207358767
O 2.0242459765 0.0000000000 2.0242459765 0.4163100906 -0.0266108874 -0.0266217440
O 0.0000000000 2.0242459765 2.0242459765 -0.2313871912 0.0027084170 -0.0231224438
5
Lattice="4.04849196301 0 0 0 4.04849196301 0 0 0 4.04849196301" Properties=species:S:1:pos:R:3:force:R:3 energy=-3729.19316984 frame_id=79::disp-007 structure_id=79::disp-007 total_charge=0 phase_label=cubic
Ba 0.0000000000 0.0000000000 0.0000000000 0.8192485355 0.0049625496 0.0000000000
Ti 2.2671555005 2.0242459765 2.0242459765 -1.3425462759 0.0087876030 0.0000000000
O 2.0242459765 2.0242459765 0.0000000000 0.4367180677 -0.0033571565 0.0000000000
O 2.0242459765 0.0000000000 2.0242459765 0.4367301502 0.0285555570 0.0000000000
O 0.0074836959 2.0317296724 2.0242459765 -0.3501504775 -0.0389485530 0.0000000000
5
Lattice="4.04849196301 0 0 0 4.04849196301 0 0 0 4.04849196301" Properties=species:S:1:pos:R:3:force:R:3 energy=-3729.19633504 frame_id=79::disp-008 structure_id=79::disp-008 total_charge=0 phase_label=cubic
Ba 0.0000000000 0.0000000000 0.0000000000 0.8037745056 -0.0049794539 0.0000000000
Ti 2.2671555005 2.0242459765 2.0242459765 -1.5143059396 -0.0081208982 0.0000000000
O 2.0242459765 2.0242459765 0.0000000000 0.3894904388 0.0033068856 0.0000000000
O 2.0242459765 0.0000000000 2.0242459765 0.3894984695 -0.0283289670 0.0000000000
O -0.0074836959 2.0167622806 2.0242459765 -0.0684574743 0.0381224334 0.0000000000
5
Lattice="4.04849196301 0 0 0 4.04849196301 0 0 0 4.04849196301" Properties=species:S:1:pos:R:3:force:R:3:bec:R:9 energy=-3729.24215502 frame_id=95::0.no-move structure_id=95::0.no-move total_charge=0 phase_label=cubic
Ba 0.0000000000 0.0000000000 0.0000000000 0.5878337367 0.5878337367 0.0000000000 2.7602793200 -0.0188192100 0.0000000000 -0.0188192100 2.7602793200 0.0000000000 0.0000000000 0.0000000000 2.6781559700
Ti 2.1960089652 2.1960089652 2.0242459765 -0.4924872445 -0.4924872445 0.0000000000 5.6859238400 -0.5484402900 0.0000000000 -0.5484402900 5.6859238400 0.0000000000 0.0000000000 -0.0000000000 6.6843492300
O 2.0242459765 2.0242459765 0.0000000000 0.2378124590 0.2378124590 0.0000000000 -1.9838969200 -0.0282273200 0.0000000000 -0.0282273200 -1.9838969200 0.0000000000 0.0000000000 0.0000000000 -5.3472358800
O 2.0242459765 0.0000000000 2.0242459765 0.2641606617 -0.5973196129 0.0000000000 -1.8582710200 0.4034537500 0.0000000000 0.1920330600 -4.6040352200 0.0000000000 0.0000000000 0.0000000000 -2.0076346600
O 0.0000000000 2.0242459765 2.0242459765 -0.5973196129 0.2641606617 0.0000000000 -4.6040352200 0.1920330600 0.0000000000 0.4034537500 -1.8582710200 0.0000000000 0.0000000000 0.0000000000 -2.0076346600
5
Lattice="4.04849196301 0 0 0 4.04849196301 0 0 0 4.04849196301" Properties=species:S:1:pos:R:3:force:R:3 energy=-3729.24622792 frame_id=95::disp-001 structure_id=95::disp-001 total_charge=0 phase_label=cubic
Ba 0.0074836959 0.0000000000 0.0074836959 0.5456469498 0.5859231653 -0.0454709127
Ti 2.1960089652 2.1960089652 2.0242459765 -0.4663010917 -0.4909840926 0.0262471731
O 2.0242459765 2.0242459765 0.0000000000 0.2410479706 0.2383479002 0.0102135566
O 2.0242459765 0.0000000000 2.0242459765 0.2680973681 -0.5974684857 0.0045004997
O 0.0000000000 2.0242459765 2.0242459765 -0.5884911969 0.2641815128 0.0045096833
5
Lattice="4.04849196301 0 0 0 4.04849196301 0 0 0 4.04849196301" Properties=species:S:1:pos:R:3:force:R:3 energy=-3729.23742919 frame_id=95::disp-002 structure_id=95::disp-002 total_charge=0 phase_label=cubic
Ba -0.0074836959 0.0000000000 -0.0074836959 0.6300566758 0.5899054651 0.0456518904
Ti 2.1960089652 2.1960089652 2.0242459765 -0.5186045114 -0.4942238589 -0.0264339073
O 2.0242459765 2.0242459765 0.0000000000 0.2345878628 0.2373247448 -0.0101869528
O 2.0242459765 0.0000000000 2.0242459765 0.2602339876 -0.5971914342 -0.0045256865
O 0.0000000000 2.0242459765 2.0242459765 -0.6062740148 0.2641850832 -0.0045053438
5
Lattice="4.04849196301 0 0 0 4.04849196301 0 0 0 4.04849196301" Properties=species:S:1:pos:R:3:force:R:3 energy=-3729.23818393 frame_id=95::disp-003 structure_id=95::disp-003 total_charge=0 phase_label=cubic
Ba 0.0000000000 0.0000000000 0.0000000000 0.6140093159 0.5895132181 0.0264181421
Ti 2.2034926611 2.1960089652 2.0317296724 -0.5735567790 -0.5019011599 0.0018791088
O 2.0242459765 2.0242459765 0.0000000000 0.2530903283 0.2372026835 -0.0453813513
O 2.0242459765 0.0000000000 2.0242459765 0.2800188752 -0.5888243149 0.0085197106
O 0.0000000000 2.0242459765 2.0242459765 -0.5735617404 0.2640095733 0.0085643898
5
Lattice="4.04849196301 0 0 0 4.04849196301 0 0 0 4.04849196301" Properties=species:S:1:pos:R:3:force:R:3 energy=-3729.24557821 frame_id=95::disp-004 structure_id=95::disp-004 total_charge=0 phase_label=cubic
Ba 0.0000000000 0.0000000000 0.0000000000 0.5617519963 0.5862802783 -0.0262386105
Ti 2.1885252693 2.1960089652 2.0167622806 -0.4183775828 -0.4835243484 -0.0029364440
O 2.0242459765 2.0242459765 0.0000000000 0.2231107650 0.2385305164 0.0462862250
O 2.0242459765 0.0000000000 2.0242459765 0.2486790878 -0.6052932674 -0.0085833309
O 0.0000000000 2.0242459765 2.0242459765 -0.6151642663 0.2640068210 -0.0085278397
5
Lattice="4.04849196301 0 0 0 4.04849196301 0 0 0 4.04849196301" Properties=species:S:1:pos:R:3:force:R:3 energy=-3729.24367291 frame_id=95::disp-005 structure_id=95::disp-005 total_charge=0 phase_label=cubic
Ba 0.0000000000 0.0000000000 0.0000000000 0.5910311025 0.5883143968 0.0101971071
Ti 2.1960089652 2.1960089652 2.0242459765 -0.4775978048 -0.4932366731 -0.0458545704
O 2.0317296724 2.0242459765 0.0074836959 0.1962480672 0.2373889869 -0.0257950319
O 2.0242459765 0.0000000000 2.0242459765 0.2603935193 -0.5967526382 0.0306695594
O 0.0000000000 2.0242459765 2.0242459765 -0.5700748841 0.2642859275 0.0307829357
5
Lattice="4.04849196301 0 0 0 4.04849196301 0 0 0 4.04849196301" Properties=species:S:1:pos:R:3:force:R:3 energy=-3729.2401146 frame_id=95::disp-006 structure_id=95::disp-006 total_charge=0 phase_label=cubic
Ba 0.0000000000 0.0000000000 0.0000000000 0.5846078751 0.5873000192 -0.0101784464
Ti 2.1960089652 2.1960089652 2.0242459765 -0.5076421989 -0.4919393923 0.0459047558
O 2.0167622806 2.0242459765 -0.0074836959 0.2792269643 0.2381166909 0.0255119472
O 2.0242459765 0.0000000000 2.0242459765 0.2678958558 -0.5974818583 -0.0306727390
O 0.0000000000 2.0242459765 2.0242459765 -0.6240884963 0.2640045405 -0.0305655176
5
Lattice="4.04849196301 0 0 0 4.04849196301 0 0 0 4.04849196301" Properties=species:S:1:pos:R:3:force:R:3 energy=-3729.24381489 frame_id=95::disp-007 structure_id=95::disp-007 total_charge=0 phase_label=cubic
Ba 0.0000000000 0.0000000000 0.0000000000 0.5917208657 0.5878159210 0.0044765595
Ti 2.1960089652 2.1960089652 2.0242459765 -0.4767523089 -0.4923933873 0.0085703998
O 2.0242459765 2.0242459765 0.0000000000 0.2340651422 0.2380139971 0.0306624075
O 2.0317296724 0.0000000000 2.0317296724 0.2225501288 -0.5945395548 -0.0404274713
O 0.0000000000 2.0242459765 2.0242459765 -0.5715838278 0.2611030241 -0.0032818955
5
Lattice="4.04849196301 0 0 0 4.04849196301 0 0 0 4.04849196301" Properties=species:S:1:pos:R:3:force:R:3 energy=-3729.23986073 frame_id=95::disp-008 structure_id=95::disp-008 total_charge=0 phase_label=cubic
Ba 0.0000000000 0.0000000000 0.0000000000 0.5839169421 0.5878229139 -0.0044933007
Ti 2.1960089652 2.1960089652 2.0242459765 -0.5082313385 -0.4924235990 -0.0086325172
O 2.0242459765 2.0242459765 0.0000000000 0.2415775880 0.2377315937 -0.0306514668
O 2.0167622806 0.0000000000 2.0167622806 0.3058453159 -0.6004124949 0.0405168099
O 0.0000000000 2.0242459765 2.0242459765 -0.6231085075 0.2672815862 0.0032604748
5
Lattice="4.04849196301 0 0 0 4.04849196301 0 0 0 4.04849196301" Properties=species:S:1:pos:R:3:force:R:3 energy=-3729.23522942 frame_id=95::disp-009 structure_id=95::disp-009 total_charge=0 phase_label=cubic
Ba 0.0000000000 0.0000000000 0.0000000000 0.5876108224 0.6004702642 0.0000000000
Ti 2.1960089652 2.1960089652 2.0242459765 -0.4807509280 -0.4678285909 0.0000000000
O 2.0242459765 2.0242459765 0.0000000000 0.2383225629 0.2762555821 0.0000000000
O 2.0242459765 0.0105835442 2.0242459765 0.2679471940 -0.7097494355 0.0000000000
O 0.0000000000 2.0242459765 2.0242459765 -0.6131296513 0.3008521801 0.0000000000
5
Lattice="4.04849196301 0 0 0 4.04849196301 0 0 0 4.04849196301" Properties=species:S:1:pos:R:3:force:R:3 energy=-3729.24784276 frame_id=95::disp-010 structure_id=95::disp-010 total_charge=0 phase_label=cubic
Ba 0.0000000000 0.0000000000 0.0000000000 0.5880124966 0.5753616984 0.0000000000
Ti 2.1960089652 2.1960089652 2.0242459765 -0.5040599549 -0.5267851121 0.0000000000
O 2.0242459765 2.0242459765 0.0000000000 0.2372651126 0.1998355820 0.0000000000
O 2.0242459765 -0.0105835442 2.0242459765 0.2595991602 -0.4763227998 0.0000000000
O 0.0000000000 2.0242459765 2.0242459765 -0.5808168145 0.2279106315 0.0000000000
5
Lattice="4.08742215044 0 0 0 4.08742215044 0 0 0 4.08742215044" Properties=species:S:1:pos:R:3:force:R:3:bec:R:9 energy=-3729.150492 frame_id=121::0.no-move structure_id=121::0.no-move total_charge=0 phase_label=cubic
Ba 0.0000000000 0.0000000000 0.0000000000 0.3756995027 0.0000000000 0.0000000000 2.7277023700 -0.0000000000 0.0000000000 0.0000000000 2.6772446000 -0.0000000000 0.0000000000 0.0000000000 2.6772446000
Ti 2.1663337371 2.0437110752 2.0437110752 0.1563212542 0.0000000000 0.0000000000 6.4610175300 0.0000000000 0.0000000000 0.0000000000 7.3053024200 -0.0000000000 0.0000000000 0.0000000000 7.3053024200
O 2.0437110752 2.0437110752 0.0000000000 0.1720212588 0.0000000000 0.0000000000 -1.9967964000 0.0000000000 0.0000000000 0.0000000000 -2.1416531900 -0.0000000000 0.0000000000 0.0000000000 -5.8072129700
O 2.0437110752 0.0000000000 2.0437110752 0.1720212588 0.0000000000 0.0000000000 -1.9967964000 0.0000000000 0.0000000000 0.0000000000 -5.8072129700 -0.0000000000 0.0000000000 0.0000000000 -2.1416531900
O 0.0000000000 2.0437110752 2.0437110752 -0.8760632746 0.0000000000 0.0000000000 -5.1951271000 0.0000000000 0.0000000000 0.0000000000 -2.0336808500 0.0000000000 0.0000000000 -0.0000000000 -2.0336808500
5
Lattice="4.08742215044 0 0 0 4.08742215044 0 0 0 4.08742215044" Properties=species:S:1:pos:R:3:force:R:3 energy=-3729.15302927 frame_id=121::disp-001 structure_id=121::disp-001 total_charge=0 phase_label=cubic
Ba 0.0074836959 0.0074836959 0.0000000000 0.3398964153 -0.0375105307 0.0000000000
Ti 2.1663337371 2.0437110752 2.0437110752 0.1795440708 0.0230787790 0.0000000000
O 2.0437110752 2.0437110752 0.0000000000 0.1735809555 0.0018420914 0.0000000000
O 2.0437110752 0.0000000000 2.0437110752 0.1735734569 0.0103628319 0.0000000000
O 0.0000000000 2.0437110752 2.0437110752 -0.8665948985 0.0022268284 0.0000000000
5
Lattice="4.08742215044 0 0 0 4.08742215044 0 0 0 4.08742215044" Properties=species:S:1:pos:R:3:force:R:3 energy=-3729.14740596 frame_id=121::disp-002 structure_id=121::disp-002 total_charge=0 phase_label=cubic
Ba -0.0074836959 -0.0074836959 0.0000000000 0.4114714674 0.0376035734 0.0000000000
Ti 2.1663337371 2.0437110752 2.0437110752 0.1332002820 -0.0231873735 0.0000000000
O 2.0437110752 2.0437110752 0.0000000000 0.1704801661 -0.0018507873 0.0000000000
O 2.0437110752 0.0000000000 2.0437110752 0.1704831491 -0.0103452676 0.0000000000
O 0.0000000000 2.0437110752 2.0437110752 -0.8856350645 -0.0022201451 0.0000000000
5
Lattice="4.08742215044 0 0 0 4.08742215044 0 0 0 4.08742215044" Properties=species:S:1:pos:R:3:force:R:3 energy=-3729.15165356 frame_id=121::disp-003 structure_id=121::disp-003 total_charge=0 phase_label=cubic
Ba 0.0000000000 0.0000000000 0.0000000000 0.3989433127 0.0232083592 0.0000000000
Ti 2.1738174330 2.0511947711 2.0437110752 0.1297016261 0.0215548754 0.0000000000
O 2.0437110752 2.0437110752 0.0000000000 0.1857631739 0.0086652839 0.0000000000
O 2.0437110752 0.0000000000 2.0437110752 0.1858461055 -0.0634503553 0.0000000000
O 0.0000000000 2.0437110752 2.0437110752 -0.9002542182 0.0100218368 0.0000000000
5
Lattice="4.08742215044 0 0 0 4.08742215044 0 0 0 4.08742215044" Properties=species:S:1:pos:R:3:force:R:3 energy=-3729.1493314 frame_id=121::disp-004 structure_id=121::disp-004 total_charge=0 phase_label=cubic
Ba 0.0000000000 0.0000000000 0.0000000000 0.3525152232 -0.0231064023 0.0000000000
Ti 2.1588500412 2.0362273793 2.0437110752 0.1769992591 -0.0227698070 0.0000000000
O 2.0437110752 2.0437110752 0.0000000000 0.1587178648 -0.0086761412 0.0000000000
O 2.0437110752 0.0000000000 2.0437110752 0.1587934764 0.0643552229 0.0000000000
O 0.0000000000 2.0437110752 2.0437110752 -0.8470258236 -0.0098028724 0.0000000000
5
Lattice="4.08742215044 0 0 0 4.08742215044 0 0 0 4.08742215044" Properties=species:S:1:pos:R:3:force:R:3 energy=-3729.15133957 frame_id=121::disp-005 structure_id=121::disp-005 total_charge=0 phase_label=cubic
Ba 0.0000000000 0.0000000000 0.0000000000 0.3769615804 0.0015189166 0.0084852265
Ti 2.1663337371 2.0437110752 2.0437110752 0.1672785618 0.0070878302 -0.0522466447
O 2.0498214873 2.0498214873 0.0061104121 0.1398516785 -0.0314059049 -0.0072490931
O 2.0437110752 0.0000000000 2.0437110752 0.1687692562 0.0259055571 0.0258999675
O 0.0000000000 2.0437110752 2.0437110752 -0.8528610769 -0.0031063991 0.0251105437
5
Lattice="4.08742215044 0 0 0 4.08742215044 0 0 0 4.08742215044" Properties=species:S:1:pos:R:3:force:R:3 energy=-3729.14923751 frame_id=121::disp-006 structure_id=121::disp-006 total_charge=0 phase_label=cubic
Ba 0.0000000000 0.0000000000 0.0000000000 0.3743950447 -0.0015317976 -0.0084729100
Ti 2.1663337371 2.0437110752 2.0437110752 0.1451837328 -0.0071097478 0.0522233698
O 2.0376006631 2.0376006631 -0.0061104121 0.2041549852 0.0314350018 0.0071451053
O 2.0437110752 0.0000000000 2.0437110752 0.1752785257 -0.0258915193 -0.0259012517
O 0.0000000000 2.0437110752 2.0437110752 -0.8990122885 0.0030980630 -0.0249943134
5
Lattice="4.08742215044 0 0 0 4.08742215044 0 0 0 4.08742215044" Properties=species:S:1:pos:R:3:force:R:3 energy=-3729.14366074 frame_id=121::disp-007 structure_id=121::disp-007 total_charge=0 phase_label=cubic
Ba 0.0000000000 0.0000000000 0.0000000000 0.3852734778 0.0022306715 0.0000000000
Ti 2.1663337371 2.0437110752 2.0437110752 0.1278086389 0.0099531757 0.0000000000
O 2.0437110752 2.0437110752 0.0000000000 0.2004275746 -0.0038095118 0.0000000000
O 2.0437110752 0.0000000000 2.0437110752 0.2004494211 0.0307303967 0.0000000000
O 0.0074836959 2.0511947711 2.0437110752 -0.9139591123 -0.0391047321 0.0000000000
5
Lattice="4.08742215044 0 0 0 4.08742215044 0 0 0 4.08742215044" Properties=species:S:1:pos:R:3:force:R:3 energy=-3729.1567657 frame_id=121::disp-008 structure_id=121::disp-008 total_charge=0 phase_label=cubic
Ba 0.0000000000 0.0000000000 0.0000000000 0.3661736611 -0.0022584464 0.0000000000
Ti 2.1663337371 2.0437110752 2.0437110752 0.1811295812 -0.0099005305 0.0000000000
O 2.0437110752 2.0437110752 0.0000000000 0.1438750767 0.0037839494 0.0000000000
O 2.0437110752 0.0000000000 2.0437110752 0.1438913931 -0.0306328359 0.0000000000
O -0.0074836959 2.0362273793 2.0437110752 -0.8350697121 0.0390078635 0.0000000000
5
Lattice="4.08742215044 0 0 0 4.08742215044 0 0 0 4.08742215044" Properties=species:S:1:pos:R:3:force:R:3:bec:R:9 energy=-3729.15861729 frame_id=138::0.no-move structure_id=138::0.no-move total_charge=0 phase_label=cubic
Ba 0.0000000000 0.0000000000 0.0000000000 0.3127339399 0.3127339399 0.0000000000 2.7091681800 -0.0060338900 -0.0000000000 -0.0060338900 2.7091681800 0.0000000000 -0.0000000000 0.0000000000 2.6754001500
Ti 2.1448696185 2.1448696185 2.0437110752 0.1580689002 0.1580689002 0.0000000000 6.6372650100 -0.2680209200 0.0000000000 -0.2680209200 6.6372650100 -0.0000000000 0.0000000000 -0.0000000000 7.2177426400
O 2.0437110752 2.0437110752 0.0000000000 0.1343166513 0.1343166513 0.0000000000 -2.0407705500 -0.0071729700 0.0000000000 -0.0071729700 -2.0407705500 -0.0000000000 0.0000000000 -0.0000000000 -5.7463437500
O 2.0437110752 0.0000000000 2.0437110752 0.1451017795 -0.7502212709 0.0000000000 -1.9818234700 0.1938576000 -0.0000000000 0.0873701800 -5.3238391600 0.0000000000 0.0000000000 -0.0000000000 -2.0733995200
O 0.0000000000 2.0437110752 2.0437110752 -0.7502212709 0.1451017795 0.0000000000 -5.3238391600 0.0873701800 -0.0000000000 0.1938576000 -1.9818234700 0.0000000000 0.0000000000 -0.0000000000 -2.0733995200
5
Lattice="4.08742215044 0 0 0 4.08742215044 0 0 0 4.08742215044" Properties=species:S:1:pos:R:3:force:R:3 energy=-3729.16067929 frame_id=138::disp-001 structure_id=138::disp-001 total_charge=0 phase_label=cubic
Ba 0.0074836959 0.0000000000 0.0074836959 0.2760938181 0.3121594938 -0.0377927664
Ti 2.1448696185 2.1448696185 2.0437110752 0.1814349570 0.1585359459 0.0232453860
O 2.0437110752 2.0437110752 0.0000000000 0.1359559829 0.1344859707 0.0103235688
O 2.0437110752 0.0000000000 2.0437110752 0.1470179499 -0.7502809102 0.0021111361
O 0.0000000000 2.0437110752 2.0437110752 -0.7405027079 0.1450994997 0.0021126755
5
Lattice="4.08742215044 0 0 0 4.08742215044 0 0 0 4.08742215044" Properties=species:S:1:pos:R:3:force:R:3 energy=-3729.15599814 frame_id=138::disp-002 structure_id=138::disp-002 total_charge=0 phase_label=cubic
Ba -0.0074836959 0.0000000000 -0.0074836959 0.3493543735 0.3133711193 0.0378778777
Ti 2.1448696185 2.1448696185 2.0437110752 0.1347862590 0.1575087203 -0.0233431616
O 2.0437110752 2.0437110752 0.0000000000 0.1326847742 0.1341739552 -0.0103083096
O 2.0437110752 0.0000000000 2.0437110752 0.1431927517 -0.7501818587 -0.0021191645
O 0.0000000000 2.0437110752 2.0437110752 -0.7600181584 0.1451280639 -0.0021072420
5
Lattice="4.08742215044 0 0 0 4.08742215044 0 0 0 4.08742215044" Properties=species:S:1:pos:R:3:force:R:3 energy=-3729.15983441 frame_id=138::disp-003 structure_id=138::disp-003 total_charge=0 phase_label=cubic
Ba 0.0000000000 0.0000000000 0.0000000000 0.3361139513 0.3132878174 0.0233703266
Ti 2.1523533144 2.1448696185 2.0511947711 0.1444209211 0.1516658466 0.0196096883
O 2.0437110752 2.0437110752 0.0000000000 0.1467268470 0.1342452544 -0.0621726559
O 2.0437110752 0.0000000000 2.0437110752 0.1580625820 -0.7455303542 0.0095394345
O 0.0000000000 2.0437110752 2.0437110752 -0.7853243014 0.1463314359 0.0096532065
5
Lattice="4.08742215044 0 0 0 4.08742215044 0 0 0 4.08742215044" Properties=species:S:1:pos:R:3:force:R:3 energy=-3729.15748072 frame_id=138::disp-004 structure_id=138::disp-004 total_charge=0 phase_label=cubic
Ba 0.0000000000 0.0000000000 0.0000000000 0.2894326716 0.3122408699 -0.0232691130
Ti 2.1373859227 2.1448696185 2.0362273793 0.1665443512 0.1637276867 -0.0206508714
O 2.0437110752 2.0437110752 0.0000000000 0.1224677074 0.1345047984 0.0629045844
O 2.0437110752 0.0000000000 2.0437110752 0.1325412569 -0.7543555683 -0.0095481114
O 0.0000000000 2.0437110752 2.0437110752 -0.7109859870 0.1438822133 -0.0094364886
5
Lattice="4.08742215044 0 0 0 4.08742215044 0 0 0 4.08742215044" Properties=species:S:1:pos:R:3:force:R:3 energy=-3729.15945439 frame_id=138::disp-005 structure_id=138::disp-005 total_charge=0 phase_label=cubic
Ba 0.0000000000 0.0000000000 0.0000000000 0.3143776332 0.3128677578 0.0103518642
Ti 2.1448696185 2.1448696185 2.0437110752 0.1701054058 0.1578547910 -0.0626101263
O 2.0511947711 2.0437110752 0.0074836959 0.0951256441 0.1341295006 -0.0097983535
O 2.0437110752 0.0000000000 2.0437110752 0.1412361855 -0.7500110085 0.0309903921
O 0.0000000000 2.0437110752 2.0437110752 -0.7208448686 0.1451589591 0.0310662235
5
Lattice="4.08742215044 0 0 0 4.08742215044 0 0 0 4.08742215044" Properties=species:S:1:pos:R:3:force:R:3 energy=-3729.15744423 frame_id=138::disp-006 structure_id=138::disp-006 total_charge=0 phase_label=cubic
Ba 0.0000000000 0.0000000000 0.0000000000 0.3110511129 0.3125594782 -0.0103347563
Ti 2.1448696185 2.1448696185 2.0437110752 0.1457935128 0.1581165976 0.0625788428
O 2.0362273793 2.0437110752 -0.0074836959 0.1734492765 0.1344448584 0.0096709871
O 2.0437110752 0.0000000000 2.0437110752 0.1489611565 -0.7501533809 -0.0309928712
O 0.0000000000 2.0437110752 2.0437110752 -0.7792550587 0.1450324467 -0.0309222024
5
Lattice="4.08742215044 0 0 0 4.08742215044 0 0 0 4.08742215044" Properties=species:S:1:pos:R:3:force:R:3 energy=-3729.1594246 frame_id=138::disp-007 structure_id=138::disp-007 total_charge=0 phase_label=cubic
Ba 0.0000000000 0.0000000000 0.0000000000 0.3146541656 0.3127046195 0.0021297022
Ti 2.1448696185 2.1448696185 2.0437110752 0.1708647074 0.1592698384 0.0095627350
O 2.0437110752 2.0437110752 0.0000000000 0.1304597237 0.1344204298 0.0309927374
O 2.0511947711 0.0000000000 2.0511947711 0.1055612467 -0.7500755856 -0.0389622504
O 0.0000000000 2.0437110752 2.0437110752 -0.7215398433 0.1436806979 -0.0037229242
5
Lattice="4.08742215044 0 0 0 4.08742215044 0 0 0 4.08742215044" Properties=species:S:1:pos:R:3:force:R:3 energy=-3729.1572524 frame_id=138::disp-008 structure_id=138::disp-008 total_charge=0 phase_label=cubic
Ba 0.0000000000 0.0000000000 0.0000000000 0.3107925343 0.3127355571 -0.0021344570
Ti 2.1448696185 2.1448696185 2.0437110752 0.1452483352 0.1568266426 -0.0096004985
O 2.0437110752 2.0437110752 0.0000000000 0.1381803452 0.1342939231 -0.0309705047
O 2.0362273793 0.0000000000 2.0362273793 0.1846638407 -0.7504374272 0.0389984190
O 0.0000000000 2.0437110752 2.0437110752 -0.7788850554 0.1465813044 0.0037070412
5
Lattice="4.08742215044 0 0 0 4.08742215044 0 0 0 4.08742215044" Properties=species:S:1:pos:R:3:force:R:3 energy=-3729.15047112 frame_id=138::disp-009 structure_id=138::disp-009 total_charge=0 phase_label=cubic
Ba 0.0000000000 0.0000000000 0.0000000000 0.3126397435 0.3266210556 0.0000000000
Ti 2.1448696185 2.1448696185 2.0437110752 0.1641992449 0.1024210559 0.0000000000
O 2.0437110752 2.0437110752 0.0000000000 0.1344126960 0.1758243784 0.0000000000
O 2.0437110752 0.0105835442 2.0437110752 0.1452486737 -0.7907319642 0.0000000000
O 0.0000000000 2.0437110752 2.0437110752 -0.7565003582 0.1858654743 0.0000000000
5
Lattice="4.08742215044 0 0 0 4.08742215044 0 0 0 4.08742215044" Properties=species:S:1:pos:R:3:force:R:3 energy=-3729.16633216 frame_id=138::disp-010 structure_id=138::disp-010 total_charge=0 phase_label=cubic
Ba 0.0000000000 0.0000000000 0.0000000000 0.3127900013 0.2989585694 0.0000000000
Ti 2.1448696185 2.1448696185 2.0437110752 0.1517294627 0.2075440316 0.0000000000
O 2.0437110752 2.0437110752 0.0000000000 0.1341957153 0.0932268463 0.0000000000
O 2.0437110752 -0.0105835442 2.0437110752 0.1447170327 -0.7044670098 0.0000000000
O 0.0000000000 2.0437110752 2.0437110752 -0.7434322119 0.1047375625 0.0000000000
5
Lattice="4.08742215044 0 0 0 4.08742215044 0 0 0 4.08742215044" Properties=species:S:1:pos:R:3:force:R:3:bec:R:9 energy=-3729.13509458 frame_id=149::0.no-move structure_id=149::0.no-move total_charge=0 phase_label=cubic
Ba 0.0000000000 0.0000000000 0.0000000000 0.0719781893 0.0719781893 0.0719781893 2.6851991300 -0.0004430000 -0.0004430000 -0.0004430000 2.6851991300 -0.0004430000 -0.0004430000 -0.0004430000 2.6851991300
Ti 2.0673098037 2.0673098037 2.0673098037 0.0838116034 0.0838116034 0.0838116034 7.4707623400 -0.0193710000 -0.0193710000 -0.0193710000 7.4707623400 -0.0193710000 -0.0193710000 -0.0193710000 7.4707623400
O 2.0437110752 2.0437110752 0.0000000000 0.0278651753 0.0278651753 -0.2115201432 -2.1162716600 -0.0002416300 0.0138536900 -0.0002416300 -2.1162716600 0.0138536900 0.0062019400 0.0062019400 -5.9234181600
O 2.0437110752 0.0000000000 2.0437110752 0.0278651753 -0.2115201432 0.0278651753 -2.1162716600 0.0138536900 -0.0002416300 0.0062019400 -5.9234181600 0.0062019400 -0.0002416300 0.0138536900 -2.1162716600
O 0.0000000000 2.0437110752 2.0437110752 -0.2115201432 0.0278651753 0.0278651753 -5.9234181600 0.0062019400 0.0062019400 0.0138536900 -2.1162716600 -0.0002416300 0.0138536900 -0.0002416300 -2.1162716600
5
Lattice="4.08742215044 0 0 0 4.08742215044 0 0 0 4.08742215044" Properties=species:S:1:pos:R:3:force:R:3 energy=-3729.13558052 frame_id=149::disp-001 structure_id=149::disp-001 total_charge=0 phase_label=cubic
Ba 0.0105835442 0.0000000000 0.0000000000 0.0197955812 0.0719461365 0.0719461365
Ti 2.0673098037 2.0673098037 2.0673098037 0.1160757669 0.0838285887 0.0838285887
O 2.0437110752 2.0437110752 0.0000000000 0.0304796801 0.0278792109 -0.2115190713
O 2.0437110752 0.0000000000 2.0437110752 0.0304796801 -0.2115190713 0.0278792109
O 0.0000000000 2.0437110752 2.0437110752 -0.1968307083 0.0278651353 0.0278651353
5
Lattice="4.08742215044 0 0 0 4.08742215044 0 0 0 4.08742215044" Properties=species:S:1:pos:R:3:force:R:3 energy=-3729.13405759 frame_id=149::disp-002 structure_id=149::disp-002 total_charge=0 phase_label=cubic
Ba -0.0105835442 0.0000000000 0.0000000000 0.1241360918 0.0720284257 0.0720284257
Ti 2.0673098037 2.0673098037 2.0673098037 0.0516035985 0.0837589300 0.0837589300
O 2.0437110752 2.0437110752 0.0000000000 0.0252457064 0.0278554662 -0.2115112080
O 2.0437110752 0.0000000000 2.0437110752 0.0252457064 -0.2115112080 0.0278554662
O 0.0000000000 2.0437110752 2.0437110752 -0.2262311031 0.0278683861 0.0278683861
5
Lattice="4.08742215044 0 0 0 4.08742215044 0 0 0 4.08742215044" Properties=species:S:1:pos:R:3:force:R:3 energy=-3729.13616519 frame_id=149::disp-003 structure_id=149::disp-003 total_charge=0 phase_label=cubic
Ba 0.0000000000 0.0000000000 0.0000000000 0.1042840820 0.0720189444 0.0720189444
Ti 2.0778933479 2.0673098037 2.0673098037 0.1177240781 0.0830218151 0.0830218151
O 2.0437110752 2.0437110752 0.0000000000 0.0407318500 0.0278658124 -0.2109677297
O 2.0437110752 0.0000000000 2.0437110752 0.0407318500 -0.2109677297 0.0278658124
O 0.0000000000 2.0437110752 2.0437110752 -0.3034718600 0.0280611579 0.0280611579
5
Lattice="4.08742215044 0 0 0 4.08742215044 0 0 0 4.08742215044" Properties=species:S:1:pos:R:3:force:R:3 energy=-3729.13439886 frame_id=149::disp-004 structure_id=149::disp-004 total_charge=0 phase_label=cubic
Ba 0.0000000000 0.0000000000 0.0000000000 0.0396938360 0.0719378551 0.0719378551
Ti 2.0567262594 2.0673098037 2.0673098037 0.0471154525 0.0843818470 0.0843818470
O 2.0437110752 2.0437110752 0.0000000000 0.0152774319 0.0278472390 -0.2118877353
O 2.0437110752 0.0000000000 2.0437110752 0.0152774319 -0.2118877353 0.0278472390
O 0.0000000000 2.0437110752 2.0437110752 -0.1173641524 0.0277207942 0.0277207942
5
Lattice="4.08742215044 0 0 0 4.08742215044 0 0 0 4.08742215044" Properties=species:S:1:pos:R:3:force:R:3 energy=-3729.13511387 frame_id=149::disp-005 structure_id=149::disp-005 total_charge=0 phase_label=cubic
Ba 0.0000000000 0.0000000000 0.0000000000 0.0746012828 0.0719893424 0.0719768420
Ti 2.0673098037 2.0673098037 2.0673098037 0.0965686371 0.0838079052 0.0839497727
O 2.0542946194 2.0437110752 0.0000000000 -0.0265504787 0.0278466228 -0.2115377400
O 2.0437110752 0.0000000000 2.0437110752 0.0221800449 -0.2115187265 0.0278792587
O 0.0000000000 2.0437110752 2.0437110752 -0.1667994861 0.0278748562 0.0277318665
5
Lattice="4.08742215044 0 0 0 4.08742215044 0 0 0 4.08742215044" Properties=species:S:1:pos:R:3:force:R:3 energy=-3729.13452459 frame_id=149::disp-006 structure_id=149::disp-006 total_charge=0 phase_label=cubic
Ba 0.0000000000 0.0000000000 0.0000000000 0.0693331831 0.0719648632 0.0719802359
Ti 2.0673098037 2.0673098037 2.0673098037 0.0710213650 0.0838057816 0.0836208308
O 2.0331275310 2.0437110752 0.0000000000 0.0822972126 0.0278903498 -0.2114894944
O 2.0437110752 0.0000000000 2.0437110752 0.0335569634 -0.2115158689 0.0278600506
O 0.0000000000 2.0437110752 2.0437110752 -0.2562087241 0.0278548744 0.0280283771
5
Lattice="4.08742215044 0 0 0 4.08742215044 0 0 0 4.08742215044" Properties=species:S:1:pos:R:3:force:R:3 energy=-3729.13281259 frame_id=149::disp-007 structure_id=149::disp-007 total_charge=0 phase_label=cubic
Ba 0.0000000000 0.0000000000 0.0000000000 0.0719723393 0.0719723393 0.0867264553
Ti 2.0673098037 2.0673098037 2.0673098037 0.0842022442 0.0842022442 -0.0101972135
O 2.0437110752 2.0437110752 0.0105835442 0.0278277062 0.0278277062 -0.2218297194
O 2.0437110752 0.0000000000 2.0437110752 0.0278620109 -0.2118643006 0.0726502388
O 0.0000000000 2.0437110752 2.0437110752 -0.2118643006 0.0278620109 0.0726502388
5
Lattice="4.08742215044 0 0 0 4.08742215044 0 0 0 4.08742215044" Properties=species:S:1:pos:R:3:force:R:3 energy=-3729.13728522 frame_id=149::disp-008 structure_id=149::disp-008 total_charge=0 phase_label=cubic
Ba 0.0000000000 0.0000000000 0.0000000000 0.0719810982 0.0719810982 0.0572672570
Ti 2.0673098037 2.0673098037 2.0673098037 0.0832888514 0.0832888514 0.1760889781
O 2.0437110752 2.0437110752 -0.0105835442 0.0278709645 0.0278709645 -0.1997977038
O 2.0437110752 0.0000000000 2.0437110752 0.0278612215 -0.2110021356 -0.0167792656
O 0.0000000000 2.0437110752 2.0437110752 -0.2110021356 0.0278612215 -0.0167792656
5
Lattice="3.81224107859 0 0 0 3.81224107859 0 0 0 3.81224107859" Properties=species:S:1:pos:R:3:force:R:3:bec:R:9 energy=-3728.66533931 frame_id=534::0.no-move structure_id=534::0.no-move total_charge=0 phase_label=cubic
Ba 0.0000000000 0.0000000000 0.0000000000 0.0000000000 0.0000000000 0.0000000000 2.8292067100 0.0000000000 -0.0000000000 -0.0000000000 2.8292067100 0.0000000000 0.0000000000 -0.0000000000 2.8292067100
Ti 1.9061205343 1.9061205343 1.9061205343 0.0000000000 0.0000000000 0.0000000000 7.3424376800 0.0000000000 -0.0000000000 -0.0000000000 7.3424376800 0.0000000000 0.0000000000 -0.0000000000 7.3424376800
O 1.9061205343 1.9061205343 0.0000000000 0.0000000000 0.0000000000 0.0000000000 -2.2196444900 0.0000000000 0.0000000000 -0.0000000000 -2.2196444900 -0.0000000000 0.0000000000 -0.0000000000 -5.7323554100
O 1.9061205343 0.0000000000 1.9061205343 0.0000000000 0.0000000000 0.0000000000 -2.2196444900 -0.0000000000 -0.0000000000 -0.0000000000 -5.7323554100 0.0000000000 0.0000000000 0.0000000000 -2.2196444900
O 0.0000000000 1.9061205343 1.9061205343 0.0000000000 0.0000000000 0.0000000000 -5.7323554100 0.0000000000 -0.0000000000 0.0000000000 -2.2196444900 0.0000000000 -0.0000000000 -0.0000000000 -2.2196444900
5
Lattice="3.81224107859 0 0 0 3.81224107859 0 0 0 3.81224107859" Properties=species:S:1:pos:R:3:force:R:3 energy=-3728.66466346 frame_id=534::disp-001 structure_id=534::disp-001 total_charge=0 phase_label=cubic
Ba 0.0105835442 0.0000000000 0.0000000000 -0.1275207721 0.0000000000 0.0000000000
Ti 1.9061205343 1.9061205343 1.9061205343 0.0542939720 0.0000000000 0.0000000000
O 1.9061205343 1.9061205343 0.0000000000 0.0286586001 0.0000000000 0.0000000000
O 1.9061205343 0.0000000000 1.9061205343 0.0286586001 0.0000000000 0.0000000000
O 0.0000000000 1.9061205343 1.9061205343 0.0159096000 0.0000000000 0.0000000000
5
Lattice="3.81224107859 0 0 0 3.81224107859 0 0 0 3.81224107859" Properties=species:S:1:pos:R:3:force:R:3 energy=-3728.66505106 frame_id=534::disp-002 structure_id=534::disp-002 total_charge=0 phase_label=cubic
Ba 0.0000000000 0.0000000000 0.0000000000 0.0543781275 0.0000000000 0.0000000000
Ti 1.9167040785 1.9061205343 1.9061205343 -0.0613430892 0.0000000000 0.0000000000
O 1.9061205343 1.9061205343 0.0000000000 -0.0104598279 0.0000000000 0.0000000000
O 1.9061205343 0.0000000000 1.9061205343 -0.0104598279 0.0000000000 0.0000000000
O 0.0000000000 1.9061205343 1.9061205343 0.0278846174 0.0000000000 0.0000000000
5
Lattice="3.81224107859 0 0 0 3.81224107859 0 0 0 3.81224107859" Properties=species:S:1:pos:R:3:force:R:3 energy=-3728.66474687 frame_id=534::disp-003 structure_id=534::disp-003 total_charge=0 phase_label=cubic
Ba 0.0000000000 0.0000000000 0.0000000000 0.0201692496 0.0000000000 0.0112402483
Ti 1.9061205343 1.9061205343 1.9061205343 -0.0075230641 0.0000000000 0.0195915803
O 1.9136042302 1.9061205343 0.0074836959 -0.0487387919 0.0000000000 -0.1137181082
O 1.9061205343 0.0000000000 1.9061205343 -0.0052385430 0.0000000000 0.0414418117
O 0.0000000000 1.9061205343 1.9061205343 0.0413311495 0.0000000000 0.0414444679
5
Lattice="3.84156715665 0 0 0 3.84156715665 0 0 0 3.84156715665" Properties=species:S:1:pos:R:3:force:R:3:bec:R:9 energy=-3728.89001608 frame_id=535::0.no-move structure_id=535::0.no-move total_charge=0 phase_label=cubic
Ba 0.0000000000 0.0000000000 0.0000000000 0.0000000000 0.0000000000 0.0000000000 2.8105780500 0.0000000000 -0.0000000000 -0.0000000000 2.8105780500 0.0000000000 0.0000000000 -0.0000000000 2.8105780500
Ti 1.9207835833 1.9207835833 1.9207835833 0.0000000000 0.0000000000 0.0000000000 7.3532078200 0.0000000000 -0.0000000000 -0.0000000000 7.3532078200 0.0000000000 0.0000000000 -0.0000000000 7.3532078200
O 1.9207835833 1.9207835833 0.0000000000 0.0000000000 0.0000000000 0.0000000000 -2.2071315200 0.0000000000 -0.0000000000 -0.0000000000 -2.2071315200 0.0000000000 0.0000000000 0.0000000000 -5.7495228300
O 1.9207835833 0.0000000000 1.9207835833 0.0000000000 0.0000000000 0.0000000000 -2.2071315200 0.0000000000 -0.0000000000 0.0000000000 -5.7495228300 0.0000000000 0.0000000000 -0.0000000000 -2.2071315200
O 0.0000000000 1.9207835833 1.9207835833 0.0000000000 0.0000000000 0.0000000000 -5.7495228300 0.0000000000 0.0000000000 -0.0000000000 -2.2071315200 0.0000000000 0.0000000000 -0.0000000000 -2.2071315200
5
Lattice="3.84156715665 0 0 0 3.84156715665 0 0 0 3.84156715665" Properties=species:S:1:pos:R:3:force:R:3 energy=-3728.88940061 frame_id=535::disp-001 structure_id=535::disp-001 total_charge=0 phase_label=cubic
Ba 0.0105835442 0.0000000000 0.0000000000 -0.1169578532 0.0000000000 0.0000000000
Ti 1.9207835833 1.9207835833 1.9207835833 0.0512168728 0.0000000000 0.0000000000
O 1.9207835833 1.9207835833 0.0000000000 0.0249216056 0.0000000000 0.0000000000
O 1.9207835833 0.0000000000 1.9207835833 0.0249216056 0.0000000000 0.0000000000
O 0.0000000000 1.9207835833 1.9207835833 0.0158977691 0.0000000000 0.0000000000
5
Lattice="3.84156715665 0 0 0 3.84156715665 0 0 0 3.84156715665" Properties=species:S:1:pos:R:3:force:R:3 energy=-3728.88974615 frame_id=535::disp-002 structure_id=535::disp-002 total_charge=0 phase_label=cubic
Ba 0.0000000000 0.0000000000 0.0000000000 0.0513985957 0.0000000000 0.0000000000
Ti 1.9313671275 1.9207835833 1.9207835833 -0.0480723571 0.0000000000 0.0000000000
O 1.9207835833 1.9207835833 0.0000000000 -0.0067021375 0.0000000000 0.0000000000
O 1.9207835833 0.0000000000 1.9207835833 -0.0067021375 0.0000000000 0.0000000000
O 0.0000000000 1.9207835833 1.9207835833 0.0100780364 0.0000000000 0.0000000000
5
Lattice="3.84156715665 0 0 0 3.84156715665 0 0 0 3.84156715665" Properties=species:S:1:pos:R:3:force:R:3 energy=-3728.88946265 frame_id=535::disp-003 structure_id=535::disp-003 total_charge=0 phase_label=cubic
Ba 0.0000000000 0.0000000000 0.0000000000 0.0176051918 0.0000000000 0.0111966125
Ti 1.9207835833 1.9207835833 1.9207835833 -0.0048519778 0.0000000000 0.0068899518
O 1.9282672792 1.9207835833 0.0074836959 -0.0479989926 0.0000000000 -0.0985789435
O 1.9207835833 0.0000000000 1.9207835833 -0.0050022128 0.0000000000 0.0402448510
O 0.0000000000 1.9207835833 1.9207835833 0.0402479913 0.0000000000 0.0402475282
5
Lattice="3.87045220475 0 0 0 3.87045220475 0 0 0 3.87045220475" Properties=species:S:1:pos:R:3:force:R:3:bec:R:9 energy=-3729.06238878 frame_id=536::0.no-move structure_id=536::0.no-move total_charge=0 phase_label=cubic
Ba 0.0000000000 0.0000000000 0.0000000000 0.0000000000 0.0000000000 0.0000000000 2.7939305400 0.0000000000 0.0000000000 0.0000000000 2.7939305400 0.0000000000 0.0000000000 0.0000000000 2.7939305400
Ti 1.9352261024 1.9352261024 1.9352261024 0.0000000000 0.0000000000 0.0000000000 7.3662858500 0.0000000000 0.0000000000 0.0000000000 7.3662858500 0.0000000000 -0.0000000000 0.0000000000 7.3662858500
O 1.9352261024 1.9352261024 0.0000000000 0.0000000000 0.0000000000 0.0000000000 -2.1957079400 -0.0000000000 -0.0000000000 0.0000000000 -2.1957079400 0.0000000000 0.0000000000 0.0000000000 -5.7688005100
O 1.9352261024 0.0000000000 1.9352261024 0.0000000000 0.0000000000 0.0000000000 -2.1957079400 0.0000000000 0.0000000000 0.0000000000 -5.7688005100 0.0000000000 -0.0000000000 -0.0000000000 -2.1957079400
O 0.0000000000 1.9352261024 1.9352261024 0.0000000000 0.0000000000 0.0000000000 -5.7688005100 0.0000000000 0.0000000000 -0.0000000000 -2.1957079400 -0.0000000000 0.0000000000 0.0000000000 -2.1957079400
5
Lattice="3.87045220475 0 0 0 3.87045220475 0 0 0 3.87045220475" Properties=species:S:1:pos:R:3:force:R:3 energy=-3729.06182155 frame_id=536::disp-001 structure_id=536::disp-001 total_charge=0 phase_label=cubic
Ba 0.0105835442 0.0000000000 0.0000000000 -0.1070276588 0.0000000000 0.0000000000
Ti 1.9352261024 1.9352261024 1.9352261024 0.0483772736 0.0000000000 0.0000000000
O 1.9352261024 1.9352261024 0.0000000000 0.0214376154 0.0000000000 0.0000000000
O 1.9352261024 0.0000000000 1.9352261024 0.0214376154 0.0000000000 0.0000000000
O 0.0000000000 1.9352261024 1.9352261024 0.0157751543 0.0000000000 0.0000000000
5
Lattice="3.87045220475 0 0 0 3.87045220475 0 0 0 3.87045220475" Properties=species:S:1:pos:R:3:force:R:3 energy=-3729.06224321 frame_id=536::disp-002 structure_id=536::disp-002 total_charge=0 phase_label=cubic
Ba 0.0000000000 0.0000000000 0.0000000000 0.0485156031 0.0000000000 0.0000000000
Ti 1.9458096466 1.9352261024 1.9352261024 -0.0349719470 0.0000000000 0.0000000000
O 1.9352261024 1.9352261024 0.0000000000 -0.0035534074 0.0000000000 0.0000000000
O 1.9352261024 0.0000000000 1.9352261024 -0.0035534074 0.0000000000 0.0000000000
O 0.0000000000 1.9352261024 1.9352261024 -0.0064368413 0.0000000000 0.0000000000
5
Lattice="3.87045220475 0 0 0 3.87045220475 0 0 0 3.87045220475" Properties=species:S:1:pos:R:3:force:R:3 energy=-3729.06190971 frame_id=536::disp-003 structure_id=536::disp-003 total_charge=0 phase_label=cubic
Ba 0.0000000000 0.0000000000 0.0000000000 0.0152043882 0.0000000000 0.0111743736
Ti 1.9352261024 1.9352261024 1.9352261024 -0.0025222377 0.0000000000 -0.0046737515
O 1.9427097983 1.9352261024 0.0074836959 -0.0469859784 0.0000000000 -0.0847971797
O 1.9352261024 0.0000000000 1.9352261024 -0.0048453470 0.0000000000 0.0391469380
O 0.0000000000 1.9352261024 1.9352261024 0.0391491749 0.0000000000 0.0391496195
5
Lattice="3.89891244287 0 0 0 3.89891244287 0 0 0 3.89891244287" Properties=species:S:1:pos:R:3:force:R:3:bec:R:9 energy=-3729.18871632 frame_id=537::0.no-move structure_id=537::0.no-move total_charge=0 phase_label=cubic
Ba 0.0000000000 0.0000000000 0.0000000000 0.0000000000 0.0000000000 0.0000000000 2.7778245600 0.0000000000 0.0000000000 0.0000000000 2.7778245600 0.0000000000 0.0000000000 0.0000000000 2.7778245600
Ti 1.9494562214 1.9494562214 1.9494562214 0.0000000000 0.0000000000 0.0000000000 7.3815315500 0.0000000000 0.0000000000 0.0000000000 7.3815315500 0.0000000000 0.0000000000 0.0000000000 7.3815315500
O 1.9494562214 1.9494562214 0.0000000000 0.0000000000 0.0000000000 0.0000000000 -2.1849366800 0.0000000000 0.0000000000 0.0000000000 -2.1849366800 0.0000000000 0.0000000000 0.0000000000 -5.7894827600
O 1.9494562214 0.0000000000 1.9494562214 0.0000000000 0.0000000000 0.0000000000 -2.1849366800 0.0000000000 0.0000000000 0.0000000000 -5.7894827600 0.0000000000 0.0000000000 0.0000000000 -2.1849366800
O 0.0000000000 1.9494562214 1.9494562214 0.0000000000 0.0000000000 0.0000000000 -5.7894827600 0.0000000000 0.0000000000 0.0000000000 -2.1849366800 0.0000000000 0.0000000000 0.0000000000 -2.1849366800
5
Lattice="3.89891244287 0 0 0 3.89891244287 0 0 0 3.89891244287" Properties=species:S:1:pos:R:3:force:R:3 energy=-3729.18819917 frame_id=537::disp-001 structure_id=537::disp-001 total_charge=0 phase_label=cubic
Ba 0.0105835442 0.0000000000 0.0000000000 -0.0984883416 0.0000000000 0.0000000000
Ti 1.9494562214 1.9494562214 1.9494562214 0.0458729391 0.0000000000 0.0000000000
O 1.9494562214 1.9494562214 0.0000000000 0.0184108817 0.0000000000 0.0000000000
O 1.9494562214 0.0000000000 1.9494562214 0.0184108817 0.0000000000 0.0000000000
O 0.0000000000 1.9494562214 1.9494562214 0.0157936390 0.0000000000 0.0000000000
5
Lattice="3.89891244287 0 0 0 3.89891244287 0 0 0 3.89891244287" Properties=species:S:1:pos:R:3:force:R:3 energy=-3729.18857032 frame_id=537::disp-002 structure_id=537::disp-002 total_charge=0 phase_label=cubic
Ba 0.0000000000 0.0000000000 0.0000000000 0.0459758322 0.0000000000 0.0000000000
Ti 1.9600397657 1.9494562214 1.9494562214 -0.0234031802 0.0000000000 0.0000000000
O 1.9494562214 1.9494562214 0.0000000000 -0.0006306398 0.0000000000 0.0000000000
O 1.9494562214 0.0000000000 1.9494562214 -0.0006306398 0.0000000000 0.0000000000
O 0.0000000000 1.9494562214 1.9494562214 -0.0213113724 0.0000000000 0.0000000000
5
Lattice="3.89891244287 0 0 0 3.89891244287 0 0 0 3.89891244287" Properties=species:S:1:pos:R:3:force:R:3 energy=-3729.18826117 frame_id=537::disp-003 structure_id=537::disp-003 total_charge=0 phase_label=cubic
Ba 0.0000000000 0.0000000000 0.0000000000 0.0129923457 0.0000000000 0.0111312950
Ti 1.9494562214 1.9494562214 1.9494562214 -0.0004985000 0.0000000000 -0.0152209227
O 1.9569399173 1.9494562214 0.0074836959 -0.0458543348 0.0000000000 -0.0720986616
O 1.9494562214 0.0000000000 1.9494562214 -0.0047198878 0.0000000000 0.0380928227
O 0.0000000000 1.9494562214 1.9494562214 0.0380803769 0.0000000000 0.0380954666
5
Lattice="3.92696313102 0 0 0 3.92696313102 0 0 0 3.92696313102" Properties=species:S:1:pos:R:3:force:R:3:bec:R:9 energy=-3729.27345426 frame_id=538::0.no-move structure_id=538::0.no-move total_charge=0 phase_label=cubic
Ba 0.0000000000 0.0000000000 0.0000000000 0.0000000000 0.0000000000 0.0000000000 2.7623614400 0.0000000000 0.0000000000 0.0000000000 2.7623614400 0.0000000000 0.0000000000 0.0000000000 2.7623614400
Ti 1.9634815705 1.9634815705 1.9634815705 0.0000000000 0.0000000000 0.0000000000 7.3990081500 0.0000000000 0.0000000000 0.0000000000 7.3990081500 0.0000000000 -0.0000000000 0.0000000000 7.3990081500
O 1.9634815705 1.9634815705 0.0000000000 0.0000000000 0.0000000000 0.0000000000 -2.1746397700 0.0000000000 -0.0000000000 0.0000000000 -2.1746397700 0.0000000000 0.0000000000 0.0000000000 -5.8120900400
O 1.9634815705 0.0000000000 1.9634815705 0.0000000000 0.0000000000 0.0000000000 -2.1746397700 0.0000000000 0.0000000000 0.0000000000 -5.8120900400 0.0000000000 0.0000000000 -0.0000000000 -2.1746397700
O 0.0000000000 1.9634815705 1.9634815705 0.0000000000 0.0000000000 0.0000000000 -5.8120900400 0.0000000000 0.0000000000 -0.0000000000 -2.1746397700 0.0000000000 0.0000000000 0.0000000000 -2.1746397700
5
Lattice="3.92696313102 0 0 0 3.92696313102 0 0 0 3.92696313102" Properties=species:S:1:pos:R:3:force:R:3 energy=-3729.27297492 frame_id=538::disp-001 structure_id=538::disp-001 total_charge=0 phase_label=cubic
Ba 0.0105835442 0.0000000000 0.0000000000 -0.0903524302 0.0000000000 0.0000000000
Ti 1.9634815705 1.9634815705 1.9634815705 0.0434815787 0.0000000000 0.0000000000
O 1.9634815705 1.9634815705 0.0000000000 0.0155766195 0.0000000000 0.0000000000
O 1.9634815705 0.0000000000 1.9634815705 0.0155766195 0.0000000000 0.0000000000
O 0.0000000000 1.9634815705 1.9634815705 0.0157176124 0.0000000000 0.0000000000
5
Lattice="3.92696313102 0 0 0 3.92696313102 0 0 0 3.92696313102" Properties=species:S:1:pos:R:3:force:R:3 energy=-3729.27341592 frame_id=538::disp-002 structure_id=538::disp-002 total_charge=0 phase_label=cubic
Ba 0.0000000000 0.0000000000 0.0000000000 0.0434898976 0.0000000000 0.0000000000
Ti 1.9740651147 1.9634815705 1.9634815705 -0.0120745089 0.0000000000 0.0000000000
O 1.9634815705 1.9634815705 0.0000000000 0.0018463773 0.0000000000 0.0000000000
O 1.9634815705 0.0000000000 1.9634815705 0.0018463773 0.0000000000 0.0000000000
O 0.0000000000 1.9634815705 1.9634815705 -0.0351081433 0.0000000000 0.0000000000
5
Lattice="3.92696313102 0 0 0 3.92696313102 0 0 0 3.92696313102" Properties=species:S:1:pos:R:3:force:R:3 energy=-3729.27307688 frame_id=538::disp-003 structure_id=538::disp-003 total_charge=0 phase_label=cubic
Ba 0.0000000000 0.0000000000 0.0000000000 0.0110037439 0.0000000000 0.0110772115
Ti 1.9634815705 1.9634815705 1.9634815705 0.0013396315 0.0000000000 -0.0249265930
O 1.9709652664 1.9634815705 0.0074836959 -0.0448713446 0.0000000000 -0.0603349823
O 1.9634815705 0.0000000000 1.9634815705 -0.0045678075 0.0000000000 0.0370908745
O 0.0000000000 1.9634815705 1.9634815705 0.0370957767 0.0000000000 0.0370934893
5
Lattice="3.9546187092 0 0 0 3.9546187092 0 0 0 3.9546187092" Properties=species:S:1:pos:R:3:force:R:3:bec:R:9 energy=-3729.32160066 frame_id=539::0.no-move structure_id=539::0.no-move total_charge=0 phase_label=cubic
Ba 0.0000000000 0.0000000000 0.0000000000 0.0000000000 0.0000000000 0.0000000000 2.7472657300 -0.0000000000 0.0000000000 0.0000000000 2.7472657300 -0.0000000000 -0.0000000000 0.0000000000 2.7472657300
Ti 1.9773093496 1.9773093496 1.9773093496 0.0000000000 0.0000000000 0.0000000000 7.4183718900 -0.0000000000 0.0000000000 0.0000000000 7.4183718900 -0.0000000000 -0.0000000000 0.0000000000 7.4183718900
O 1.9773093496 1.9773093496 0.0000000000 0.0000000000 0.0000000000 0.0000000000 -2.1648794700 -0.0000000000 -0.0000000000 0.0000000000 -2.1648794700 0.0000000000 -0.0000000000 0.0000000000 -5.8358786800
O 1.9773093496 0.0000000000 1.9773093496 0.0000000000 0.0000000000 0.0000000000 -2.1648794700 0.0000000000 0.0000000000 0.0000000000 -5.8358786800 -0.0000000000 -0.0000000000 -0.0000000000 -2.1648794700
O 0.0000000000 1.9773093496 1.9773093496 0.0000000000 0.0000000000 0.0000000000 -5.8358786800 -0.0000000000 0.0000000000 -0.0000000000 -2.1648794700 -0.0000000000 0.0000000000 0.0000000000 -2.1648794700
5
Lattice="3.9546187092 0 0 0 3.9546187092 0 0 0 3.9546187092" Properties=species:S:1:pos:R:3:force:R:3 energy=-3729.32116856 frame_id=539::disp-001 structure_id=539::disp-001 total_charge=0 phase_label=cubic
Ba 0.0105835442 0.0000000000 0.0000000000 -0.0822575963 0.0000000000 0.0000000000
Ti 1.9773093496 1.9773093496 1.9773093496 0.0411040624 0.0000000000 0.0000000000
O 1.9773093496 1.9773093496 0.0000000000 0.0128352674 0.0000000000 0.0000000000
O 1.9773093496 0.0000000000 1.9773093496 0.0128352674 0.0000000000 0.0000000000
O 0.0000000000 1.9773093496 1.9773093496 0.0154829991 0.0000000000 0.0000000000
5
Lattice="3.9546187092 0 0 0 3.9546187092 0 0 0 3.9546187092" Properties=species:S:1:pos:R:3:force:R:3 energy=-3729.32156086 frame_id=539::disp-002 structure_id=539::disp-002 total_charge=0 phase_label=cubic
Ba 0.0000000000 0.0000000000 0.0000000000 0.0412522800 0.0000000000 0.0000000000
Ti 1.9878928938 1.9773093496 1.9773093496 -0.0020072567 0.0000000000 0.0000000000
O 1.9773093496 1.9773093496 0.0000000000 0.0041780453 0.0000000000 0.0000000000
O 1.9773093496 0.0000000000 1.9773093496 0.0041780453 0.0000000000 0.0000000000
O 0.0000000000 1.9773093496 1.9773093496 -0.0476011139 0.0000000000 0.0000000000
5
Lattice="3.9546187092 0 0 0 3.9546187092 0 0 0 3.9546187092" Properties=species:S:1:pos:R:3:force:R:3 energy=-3729.3212322 frame_id=539::disp-003 structure_id=539::disp-003 total_charge=0 phase_label=cubic
Ba 0.0000000000 0.0000000000 0.0000000000 0.0091464997 0.0000000000 0.0110075957
Ti 1.9773093496 1.9773093496 1.9773093496 0.0029809698 0.0000000000 -0.0337429431
O 1.9847930455 1.9773093496 0.0074836959 -0.0437919566 0.0000000000 -0.0495322176
O 1.9773093496 0.0000000000 1.9773093496 -0.0044595263 0.0000000000 0.0361325203
O 0.0000000000 1.9773093496 1.9773093496 0.0361240134 0.0000000000 0.0361350446
5
Lattice="3.9818928074 0 0 0 3.9818928074 0 0 0 3.9818928074" Properties=species:S:1:pos:R:3:force:R:3:bec:R:9 energy=-3729.33659488 frame_id=540::0.no-move structure_id=540::0.no-move total_charge=0 phase_label=cubic
Ba 0.0000000000 0.0000000000 0.0000000000 0.0000000000 0.0000000000 0.0000000000 2.7334684800 0.0000000000 0.0000000000 0.0000000000 2.7334684800 0.0000000000 0.0000000000 0.0000000000 2.7334684800
Ti 1.9909463987 1.9909463987 1.9909463987 0.0000000000 0.0000000000 0.0000000000 7.4404550300 0.0000000000 0.0000000000 0.0000000000 7.4404550300 0.0000000000 0.0000000000 0.0000000000 7.4404550300
O 1.9909463987 1.9909463987 0.0000000000 0.0000000000 0.0000000000 0.0000000000 -2.1561897900 0.0000000000 -0.0000000000 0.0000000000 -2.1561897900 0.0000000000 0.0000000000 0.0000000000 -5.8615439200
O 1.9909463987 0.0000000000 1.9909463987 0.0000000000 0.0000000000 0.0000000000 -2.1561897900 0.0000000000 0.0000000000 0.0000000000 -5.8615439200 0.0000000000 0.0000000000 -0.0000000000 -2.1561897900
O 0.0000000000 1.9909463987 1.9909463987 0.0000000000 0.0000000000 0.0000000000 -5.8615439200 0.0000000000 0.0000000000 -0.0000000000 -2.1561897900 0.0000000000 0.0000000000 0.0000000000 -2.1561897900
5
Lattice="3.9818928074 0 0 0 3.9818928074 0 0 0 3.9818928074" Properties=species:S:1:pos:R:3:force:R:3 energy=-3729.33619004 frame_id=540::disp-001 structure_id=540::disp-001 total_charge=0 phase_label=cubic
Ba 0.0105835442 0.0000000000 0.0000000000 -0.0759411673 0.0000000000 0.0000000000
Ti 1.9909463987 1.9909463987 1.9909463987 0.0392877804 0.0000000000 0.0000000000
O 1.9909463987 1.9909463987 0.0000000000 0.0105763252 0.0000000000 0.0000000000
O 1.9909463987 0.0000000000 1.9909463987 0.0105763252 0.0000000000 0.0000000000
O 0.0000000000 1.9909463987 1.9909463987 0.0155007364 0.0000000000 0.0000000000
5
Lattice="3.9818928074 0 0 0 3.9818928074 0 0 0 3.9818928074" Properties=species:S:1:pos:R:3:force:R:3 energy=-3729.33666597 frame_id=540::disp-002 structure_id=540::disp-002 total_charge=0 phase_label=cubic
Ba 0.0000000000 0.0000000000 0.0000000000 0.0393482197 0.0000000000 0.0000000000
Ti 2.0015299429 1.9909463987 1.9909463987 0.0071033238 0.0000000000 0.0000000000
O 1.9909463987 1.9909463987 0.0000000000 0.0062694602 0.0000000000 0.0000000000
O 1.9909463987 0.0000000000 1.9909463987 0.0062694602 0.0000000000 0.0000000000
O 0.0000000000 1.9909463987 1.9909463987 -0.0589904639 0.0000000000 0.0000000000
5
Lattice="3.9818928074 0 0 0 3.9818928074 0 0 0 3.9818928074" Properties=species:S:1:pos:R:3:force:R:3 energy=-3729.33630226 frame_id=540::disp-003 structure_id=540::disp-003 total_charge=0 phase_label=cubic
Ba 0.0000000000 0.0000000000 0.0000000000 0.0074381202 0.0000000000 0.0109090636
Ti 1.9909463987 1.9909463987 1.9909463987 0.0044120616 0.0000000000 -0.0418485916
O 1.9984300946 1.9909463987 0.0074836959 -0.0426920274 0.0000000000 -0.0394749992
O 1.9909463987 0.0000000000 1.9909463987 -0.0043572719 0.0000000000 0.0352060509
O 0.0000000000 1.9909463987 1.9909463987 0.0351991175 0.0000000000 0.0352084763
5
Lattice="4.03534741387 0 0 0 4.03534741387 0 0 0 4.03534741387" Properties=species:S:1:pos:R:3:force:R:3:bec:R:9 energy=-3729.28135393 frame_id=542::0.no-move structure_id=542::0.no-move total_charge=0 phase_label=cubic
Ba 0.0000000000 0.0000000000 0.0000000000 0.0000000000 0.0000000000 0.0000000000 2.7074220500 0.0000000000 0.0000000000 0.0000000000 2.7074220500 0.0000000000 0.0000000000 0.0000000000 2.7074220500
Ti 2.0176737069 2.0176737069 2.0176737069 0.0000000000 0.0000000000 0.0000000000 7.4894975400 0.0000000000 0.0000000000 0.0000000000 7.4894975400 0.0000000000 0.0000000000 0.0000000000 7.4894975400
O 2.0176737069 2.0176737069 0.0000000000 0.0000000000 0.0000000000 0.0000000000 -2.1401137000 0.0000000000 0.0000000000 0.0000000000 -2.1401137000 0.0000000000 0.0000000000 0.0000000000 -5.9166921900
O 2.0176737069 0.0000000000 2.0176737069 0.0000000000 0.0000000000 0.0000000000 -2.1401137000 0.0000000000 0.0000000000 0.0000000000 -5.9166921900 0.0000000000 0.0000000000 0.0000000000 -2.1401137000
O 0.0000000000 2.0176737069 2.0176737069 0.0000000000 0.0000000000 0.0000000000 -5.9166921900 0.0000000000 0.0000000000 0.0000000000 -2.1401137000 0.0000000000 0.0000000000 0.0000000000 -2.1401137000
5
Lattice="4.03534741387 0 0 0 4.03534741387 0 0 0 4.03534741387" Properties=species:S:1:pos:R:3:force:R:3 energy=-3729.28101995 frame_id=542::disp-001 structure_id=542::disp-001 total_charge=0 phase_label=cubic
Ba 0.0105835442 0.0000000000 0.0000000000 -0.0627700871 0.0000000000 0.0000000000
Ti 2.0176737069 2.0176737069 2.0176737069 0.0354203831 0.0000000000 0.0000000000
O 2.0176737069 2.0176737069 0.0000000000 0.0061549460 0.0000000000 0.0000000000
O 2.0176737069 0.0000000000 2.0176737069 0.0061549460 0.0000000000 0.0000000000
O 0.0000000000 2.0176737069 2.0176737069 0.0150398120 0.0000000000 0.0000000000
5
Lattice="4.03534741387 0 0 0 4.03534741387 0 0 0 4.03534741387" Properties=species:S:1:pos:R:3:force:R:3 energy=-3729.28151287 frame_id=542::disp-002 structure_id=542::disp-002 total_charge=0 phase_label=cubic
Ba 0.0000000000 0.0000000000 0.0000000000 0.0355312902 0.0000000000 0.0000000000
Ti 2.0282572512 2.0176737069 2.0176737069 0.0244491041 0.0000000000 0.0000000000
O 2.0176737069 2.0176737069 0.0000000000 0.0096010010 0.0000000000 0.0000000000
O 2.0176737069 0.0000000000 2.0176737069 0.0096010010 0.0000000000 0.0000000000
O 0.0000000000 2.0176737069 2.0176737069 -0.0791823963 0.0000000000 0.0000000000
5
Lattice="4.03534741387 0 0 0 4.03534741387 0 0 0 4.03534741387" Properties=species:S:1:pos:R:3:force:R:3 energy=-3729.28113139 frame_id=542::disp-003 structure_id=542::disp-003 total_charge=0 phase_label=cubic
Ba 0.0000000000 0.0000000000 0.0000000000 0.0043950725 0.0000000000 0.0106632880
Ti 2.0176737069 2.0176737069 2.0176737069 0.0068280644 0.0000000000 -0.0560951065
O 2.0251574028 2.0176737069 0.0074836959 -0.0404712419 0.0000000000 -0.0214632249
O 2.0176737069 0.0000000000 2.0176737069 -0.0041967284 0.0000000000 0.0334463650
O 0.0000000000 2.0176737069 2.0176737069 0.0334448334 0.0000000000 0.0334486785
5
Lattice="4.06155170214 0 0 0 4.06155170214 0 0 0 4.06155170214" Properties=species:S:1:pos:R:3:force:R:3:bec:R:9 energy=-3729.21728381 frame_id=543::0.no-move structure_id=543::0.no-move total_charge=0 phase_label=cubic
Ba 0.0000000000 0.0000000000 0.0000000000 0.0000000000 0.0000000000 0.0000000000 2.6951931100 0.0000000000 0.0000000000 0.0000000000 2.6951931100 0.0000000000 0.0000000000 0.0000000000 2.6951931100
Ti 2.0307758561 2.0307758561 2.0307758561 0.0000000000 0.0000000000 0.0000000000 7.5165075400 0.0000000000 0.0000000000 0.0000000000 7.5165075400 0.0000000000 0.0000000000 0.0000000000 7.5165075400
O 2.0307758561 2.0307758561 0.0000000000 0.0000000000 0.0000000000 0.0000000000 -2.1330231300 0.0000000000 0.0000000000 0.0000000000 -2.1330231300 0.0000000000 0.0000000000 0.0000000000 -5.9456543900
O 2.0307758561 0.0000000000 2.0307758561 0.0000000000 0.0000000000 0.0000000000 -2.1330231300 0.0000000000 0.0000000000 0.0000000000 -5.9456543900 0.0000000000 0.0000000000 0.0000000000 -2.1330231300
O 0.0000000000 2.0307758561 2.0307758561 0.0000000000 0.0000000000 0.0000000000 -5.9456543900 0.0000000000 0.0000000000 0.0000000000 -2.1330231300 0.0000000000 0.0000000000 0.0000000000 -2.1330231300
5
Lattice="4.06155170214 0 0 0 4.06155170214 0 0 0 4.06155170214" Properties=species:S:1:pos:R:3:force:R:3 energy=-3729.21698183 frame_id=543::disp-001 structure_id=543::disp-001 total_charge=0 phase_label=cubic
Ba 0.0105835442 0.0000000000 0.0000000000 -0.0577729122 0.0000000000 0.0000000000
Ti 2.0307758561 2.0307758561 2.0307758561 0.0339032372 0.0000000000 0.0000000000
O 2.0307758561 2.0307758561 0.0000000000 0.0044192685 0.0000000000 0.0000000000
O 2.0307758561 0.0000000000 2.0307758561 0.0044192685 0.0000000000 0.0000000000
O 0.0000000000 2.0307758561 2.0307758561 0.0150311379 0.0000000000 0.0000000000
5
Lattice="4.06155170214 0 0 0 4.06155170214 0 0 0 4.06155170214" Properties=species:S:1:pos:R:3:force:R:3 energy=-3729.2174297 frame_id=543::disp-002 structure_id=543::disp-002 total_charge=0 phase_label=cubic
Ba 0.0000000000 0.0000000000 0.0000000000 0.0339761151 0.0000000000 0.0000000000
Ti 2.0413594003 2.0307758561 2.0307758561 0.0316745579 0.0000000000 0.0000000000
O 2.0307758561 2.0307758561 0.0000000000 0.0111115194 0.0000000000 0.0000000000
O 2.0307758561 0.0000000000 2.0307758561 0.0111115194 0.0000000000 0.0000000000
O 0.0000000000 2.0307758561 2.0307758561 -0.0878737117 0.0000000000 0.0000000000
5
Lattice="4.06155170214 0 0 0 4.06155170214 0 0 0 4.06155170214" Properties=species:S:1:pos:R:3:force:R:3 energy=-3729.21707205 frame_id=543::disp-003 structure_id=543::disp-003 total_charge=0 phase_label=cubic
Ba 0.0000000000 0.0000000000 0.0000000000 0.0030631199 0.0000000000 0.0105632426
Ti 2.0307758561 2.0307758561 2.0307758561 0.0078215080 0.0000000000 -0.0622975714
O 2.0382595520 2.0307758561 0.0074836959 -0.0393838879 0.0000000000 -0.0135349700
O 2.0307758561 0.0000000000 2.0307758561 -0.0041237205 0.0000000000 0.0326335337
O 0.0000000000 2.0307758561 2.0307758561 0.0326229805 0.0000000000 0.0326357650
5
Lattice="4.08742215044 0 0 0 4.08742215044 0 0 0 4.08742215044" Properties=species:S:1:pos:R:3:force:R:3:bec:R:9 energy=-3729.1320556 frame_id=544::0.no-move structure_id=544::0.no-move total_charge=0 phase_label=cubic
Ba 0.0000000000 0.0000000000 0.0000000000 0.0000000000 0.0000000000 0.0000000000 2.6837243400 0.0000000000 0.0000000000 0.0000000000 2.6837243400 0.0000000000 0.0000000000 0.0000000000 2.6837243400
Ti 2.0437110752 2.0437110752 2.0437110752 0.0000000000 0.0000000000 0.0000000000 7.5445968400 0.0000000000 0.0000000000 0.0000000000 7.5445968400 0.0000000000 0.0000000000 0.0000000000 7.5445968400
O 2.0437110752 2.0437110752 0.0000000000 0.0000000000 0.0000000000 0.0000000000 -2.1262734900 0.0000000000 0.0000000000 0.0000000000 -2.1262734900 0.0000000000 0.0000000000 0.0000000000 -5.9757742000
O 2.0437110752 0.0000000000 2.0437110752 0.0000000000 0.0000000000 0.0000000000 -2.1262734900 0.0000000000 0.0000000000 0.0000000000 -5.9757742000 0.0000000000 0.0000000000 0.0000000000 -2.1262734900
O 0.0000000000 2.0437110752 2.0437110752 0.0000000000 0.0000000000 0.0000000000 -5.9757742000 0.0000000000 0.0000000000 0.0000000000 -2.1262734900 0.0000000000 0.0000000000 0.0000000000 -2.1262734900
5
Lattice="4.08742215044 0 0 0 4.08742215044 0 0 0 4.08742215044" Properties=species:S:1:pos:R:3:force:R:3 energy=-3729.13178012 frame_id=544::disp-001 structure_id=544::disp-001 total_charge=0 phase_label=cubic
Ba 0.0105835442 0.0000000000 0.0000000000 -0.0521446775 0.0000000000 0.0000000000
Ti 2.0437110752 2.0437110752 2.0437110752 0.0321292962 0.0000000000 0.0000000000
O 2.0437110752 2.0437110752 0.0000000000 0.0026121910 0.0000000000 0.0000000000
O 2.0437110752 0.0000000000 2.0437110752 0.0026121910 0.0000000000 0.0000000000
O 0.0000000000 2.0437110752 2.0437110752 0.0147909992 0.0000000000 0.0000000000
5
Lattice="4.08742215044 0 0 0 4.08742215044 0 0 0 4.08742215044" Properties=species:S:1:pos:R:3:force:R:3 energy=-3729.13227567 frame_id=544::disp-002 structure_id=544::disp-002 total_charge=0 phase_label=cubic
Ba 0.0000000000 0.0000000000 0.0000000000 0.0322156417 0.0000000000 0.0000000000
Ti 2.0542946194 2.0437110752 2.0437110752 0.0392510611 0.0000000000 0.0000000000
O 2.0437110752 2.0437110752 0.0000000000 0.0122766160 0.0000000000 0.0000000000
O 2.0437110752 0.0000000000 2.0437110752 0.0122766160 0.0000000000 0.0000000000
O 0.0000000000 2.0437110752 2.0437110752 -0.0960199347 0.0000000000 0.0000000000
5
Lattice="4.08742215044 0 0 0 4.08742215044 0 0 0 4.08742215044" Properties=species:S:1:pos:R:3:force:R:3 energy=-3729.13190391 frame_id=544::disp-003 structure_id=544::disp-003 total_charge=0 phase_label=cubic
Ba 0.0000000000 0.0000000000 0.0000000000 0.0018619341 0.0000000000 0.0104667244
Ti 2.0437110752 2.0437110752 2.0437110752 0.0087173149 0.0000000000 -0.0679963771
O 2.0511947711 2.0437110752 0.0074836959 -0.0383822129 0.0000000000 -0.0061757086
O 2.0437110752 0.0000000000 2.0437110752 -0.0040426309 0.0000000000 0.0318516028
O 0.0000000000 2.0437110752 2.0437110752 0.0318455949 0.0000000000 0.0318537584
5
Lattice="4.11296920875 0 0 0 4.11296920875 0 0 0 4.11296920875" Properties=species:S:1:pos:R:3:force:R:3:bec:R:9 energy=-3729.02842613 frame_id=545::0.no-move structure_id=545::0.no-move total_charge=0 phase_label=cubic
Ba 0.0000000000 0.0000000000 0.0000000000 0.0000000000 0.0000000000 0.0000000000 2.6729548100 0.0000000000 0.0000000000 0.0000000000 2.6729548100 0.0000000000 0.0000000000 0.0000000000 2.6729548100
Ti 2.0564846044 2.0564846044 2.0564846044 0.0000000000 0.0000000000 0.0000000000 7.5738413400 0.0000000000 0.0000000000 0.0000000000 7.5738413400 0.0000000000 0.0000000000 0.0000000000 7.5738413400
O 2.0564846044 2.0564846044 0.0000000000 0.0000000000 0.0000000000 0.0000000000 -2.1198267700 0.0000000000 -0.0000000000 0.0000000000 -2.1198267700 0.0000000000 0.0000000000 0.0000000000 -6.0071426100
O 2.0564846044 0.0000000000 2.0564846044 0.0000000000 0.0000000000 0.0000000000 -2.1198267700 0.0000000000 0.0000000000 0.0000000000 -6.0071426100 0.0000000000 0.0000000000 -0.0000000000 -2.1198267700
O 0.0000000000 2.0564846044 2.0564846044 0.0000000000 0.0000000000 0.0000000000 -6.0071426100 0.0000000000 0.0000000000 -0.0000000000 -2.1198267700 0.0000000000 0.0000000000 0.0000000000 -2.1198267700
5
Lattice="4.11296920875 0 0 0 4.11296920875 0 0 0 4.11296920875" Properties=species:S:1:pos:R:3:force:R:3 energy=-3729.02817688 frame_id=545::disp-001 structure_id=545::disp-001 total_charge=0 phase_label=cubic
Ba 0.0105835442 0.0000000000 0.0000000000 -0.0473526998 0.0000000000 0.0000000000
Ti 2.0564846044 2.0564846044 2.0564846044 0.0304652598 0.0000000000 0.0000000000
O 2.0564846044 2.0564846044 0.0000000000 0.0010966659 0.0000000000 0.0000000000
O 2.0564846044 0.0000000000 2.0564846044 0.0010966659 0.0000000000 0.0000000000
O 0.0000000000 2.0564846044 2.0564846044 0.0146941081 0.0000000000 0.0000000000
5
Lattice="4.11296920875 0 0 0 4.11296920875 0 0 0 4.11296920875" Properties=species:S:1:pos:R:3:force:R:3 energy=-3729.02864047 frame_id=545::disp-002 structure_id=545::disp-002 total_charge=0 phase_label=cubic
Ba 0.0000000000 0.0000000000 0.0000000000 0.0305434870 0.0000000000 0.0000000000
Ti 2.0670681486 2.0564846044 2.0564846044 0.0459880089 0.0000000000 0.0000000000
O 2.0564846044 2.0564846044 0.0000000000 0.0134145169 0.0000000000 0.0000000000
O 2.0564846044 0.0000000000 2.0564846044 0.0134145169 0.0000000000 0.0000000000
O 0.0000000000 2.0564846044 2.0564846044 -0.1033605297 0.0000000000 0.0000000000
5
Lattice="4.11296920875 0 0 0 4.11296920875 0 0 0 4.11296920875" Properties=species:S:1:pos:R:3:force:R:3 energy=-3729.02827231 frame_id=545::disp-003 structure_id=545::disp-003 total_charge=0 phase_label=cubic
Ba 0.0000000000 0.0000000000 0.0000000000 0.0007719300 0.0000000000 0.0103639604
Ti 2.0564846044 2.0564846044 2.0564846044 0.0094937434 0.0000000000 -0.0731813245
O 2.0639683003 2.0564846044 0.0074836959 -0.0373785034 0.0000000000 0.0006212379
O 2.0564846044 0.0000000000 2.0564846044 -0.0039826426 0.0000000000 0.0310970070
O 0.0000000000 2.0564846044 2.0564846044 0.0310954726 0.0000000000 0.0310991192
40
Lattice="8.09698446 0 0 0 8.09698446 0 0 0 8.09698446" Properties=species:S:1:pos:R:3:force:R:3 energy=-29834.0170831 frame_id=phonon_equilibrium structure_id=extxyz total_charge=0 stress="-0.0498823843991 0 -0 0 -0.0498823843991 -0 -0 -0 -0.0498823843991" phase_label=cubic
Ba 0.0000000000 0.0000000000 0.0000000000 0.0000000000 0.0000000000 0.0000000000
Ba 4.0484922300 0.0000000000 0.0000000000 0.0000000000 0.0000000000 0.0000000000
Ba 0.0000000000 4.0484922300 0.0000000000 0.0000000000 0.0000000000 0.0000000000
Ba 4.0484922300 4.0484922300 0.0000000000 0.0000000000 0.0000000000 0.0000000000
Ba 0.0000000000 0.0000000000 4.0484922300 0.0000000000 0.0000000000 0.0000000000
Ba 4.0484922300 0.0000000000 4.0484922300 0.0000000000 0.0000000000 0.0000000000
Ba 0.0000000000 4.0484922300 4.0484922300 0.0000000000 0.0000000000 0.0000000000
Ba 4.0484922300 4.0484922300 4.0484922300 0.0000000000 0.0000000000 0.0000000000
O 2.0242461150 2.0242461150 0.0000000000 0.0000000000 0.0000000000 0.0000000000
O 6.0727383450 2.0242461150 0.0000000000 0.0000000000 0.0000000000 0.0000000000
O 2.0242461150 6.0727383450 0.0000000000 0.0000000000 0.0000000000 0.0000000000
O 6.0727383450 6.0727383450 0.0000000000 0.0000000000 0.0000000000 0.0000000000
O 2.0242461150 2.0242461150 4.0484922300 0.0000000000 0.0000000000 0.0000000000
O 6.0727383450 2.0242461150 4.0484922300 0.0000000000 0.0000000000 0.0000000000
O 2.0242461150 6.0727383450 4.0484922300 0.0000000000 0.0000000000 0.0000000000
O 6.0727383450 6.0727383450 4.0484922300 0.0000000000 0.0000000000 0.0000000000
O 2.0242461150 0.0000000000 2.0242461150 0.0000000000 0.0000000000 0.0000000000
O 6.0727383450 0.0000000000 2.0242461150 0.0000000000 0.0000000000 0.0000000000
O 2.0242461150 4.0484922300 2.0242461150 0.0000000000 0.0000000000 0.0000000000
O 6.0727383450 4.0484922300 2.0242461150 0.0000000000 0.0000000000 0.0000000000
O 2.0242461150 0.0000000000 6.0727383450 0.0000000000 0.0000000000 0.0000000000
O 6.0727383450 0.0000000000 6.0727383450 0.0000000000 0.0000000000 0.0000000000
O 2.0242461150 4.0484922300 6.0727383450 0.0000000000 0.0000000000 0.0000000000
O 6.0727383450 4.0484922300 6.0727383450 0.0000000000 0.0000000000 0.0000000000
O 0.0000000000 2.0242461150 2.0242461150 0.0000000000 0.0000000000 0.0000000000
O 4.0484922300 2.0242461150 2.0242461150 0.0000000000 0.0000000000 0.0000000000
O 0.0000000000 6.0727383450 2.0242461150 0.0000000000 0.0000000000 0.0000000000
O 4.0484922300 6.0727383450 2.0242461150 0.0000000000 0.0000000000 0.0000000000
O 0.0000000000 2.0242461150 6.0727383450 0.0000000000 0.0000000000 0.0000000000
O 4.0484922300 2.0242461150 6.0727383450 0.0000000000 0.0000000000 0.0000000000
O 0.0000000000 6.0727383450 6.0727383450 0.0000000000 0.0000000000 0.0000000000
O 4.0484922300 6.0727383450 6.0727383450 0.0000000000 0.0000000000 0.0000000000
Ti 2.0242461150 2.0242461150 2.0242461150 0.0000000000 0.0000000000 0.0000000000
Ti 6.0727383450 2.0242461150 2.0242461150 0.0000000000 0.0000000000 0.0000000000
Ti 2.0242461150 6.0727383450 2.0242461150 0.0000000000 0.0000000000 0.0000000000
Ti 6.0727383450 6.0727383450 2.0242461150 0.0000000000 0.0000000000 0.0000000000
Ti 2.0242461150 2.0242461150 6.0727383450 0.0000000000 0.0000000000 0.0000000000
Ti 6.0727383450 2.0242461150 6.0727383450 0.0000000000 0.0000000000 0.0000000000
Ti 2.0242461150 6.0727383450 6.0727383450 0.0000000000 0.0000000000 0.0000000000
Ti 6.0727383450 6.0727383450 6.0727383450 0.0000000000 0.0000000000 0.0000000000
40
Lattice="8.09698446 0 0 0 8.09698446 0 0 0 8.09698446" Properties=species:S:1:pos:R:3:force:R:3 energy=-29834.0166991 frame_id=phonon_disp_001 structure_id=extxyz total_charge=0 stress="-0.0498806712761 0 0 0 -0.04988041446 0 -0 0 -0.04988041446" phase_label=cubic
Ba 0.0100000000 0.0000000000 0.0000000000 -0.0768057121 0.0000000000 0.0000000000
Ba 4.0484922300 0.0000000000 0.0000000000 0.0222045015 0.0000000000 0.0000000000
Ba 0.0000000000 4.0484922300 0.0000000000 -0.0051383428 0.0000000000 0.0000000000
Ba 4.0484922300 4.0484922300 0.0000000000 0.0040556095 0.0000000000 0.0000000000
Ba 0.0000000000 0.0000000000 4.0484922300 -0.0051383428 0.0000000000 0.0000000000
Ba 4.0484922300 0.0000000000 4.0484922300 0.0040556095 0.0000000000 0.0000000000
Ba 0.0000000000 4.0484922300 4.0484922300 -0.0020683385 0.0000000000 0.0000000000
Ba 4.0484922300 4.0484922300 4.0484922300 0.0018440909 0.0000000000 0.0000000000
O 2.0242461150 2.0242461150 0.0000000000 0.0040893195 0.0119426451 0.0119426451
O 6.0727383450 2.0242461150 0.0000000000 0.0041206803 -0.0118063110 -0.0118063110
O 2.0242461150 6.0727383450 0.0000000000 0.0040893195 -0.0119426451 0.0119426451
O 6.0727383450 6.0727383450 0.0000000000 0.0041206803 0.0118063110 -0.0118063110
O 2.0242461150 2.0242461150 4.0484922300 0.0040893195 0.0119426451 -0.0119426451
O 6.0727383450 2.0242461150 4.0484922300 0.0041206803 -0.0118063110 0.0118063110
O 2.0242461150 6.0727383450 4.0484922300 0.0040893195 -0.0119426451 -0.0119426451
O 6.0727383450 6.0727383450 4.0484922300 0.0041206803 0.0118063110 0.0118063110
O 2.0242461150 0.0000000000 2.0242461150 0.0012152462 -0.0013329196 0.0000000000
O 6.0727383450 0.0000000000 2.0242461150 0.0010012309 0.0015159381 0.0000000000
O 2.0242461150 4.0484922300 2.0242461150 0.0012152462 0.0013329196 0.0000000000
O 6.0727383450 4.0484922300 2.0242461150 0.0010012309 -0.0015159381 0.0000000000
O 2.0242461150 0.0000000000 6.0727383450 0.0001442773 -0.0010627277 0.0000000000
O 6.0727383450 0.0000000000 6.0727383450 0.0001345788 0.0010705387 0.0000000000
O 2.0242461150 4.0484922300 6.0727383450 0.0001442773 0.0010627277 0.0000000000
O 6.0727383450 4.0484922300 6.0727383450 0.0001345788 -0.0010705387 0.0000000000
O 0.0000000000 2.0242461150 2.0242461150 0.0012152462 0.0000000000 -0.0013329196
O 4.0484922300 2.0242461150 2.0242461150 0.0010012309 0.0000000000 0.0015159381
O 0.0000000000 6.0727383450 2.0242461150 0.0001442773 0.0000000000 -0.0010627277
O 4.0484922300 6.0727383450 2.0242461150 0.0001345788 0.0000000000 0.0010705387
O 0.0000000000 2.0242461150 6.0727383450 0.0012152462 0.0000000000 0.0013329196
O 4.0484922300 2.0242461150 6.0727383450 0.0010012309 0.0000000000 -0.0015159381
O 0.0000000000 6.0727383450 6.0727383450 0.0001442773 0.0000000000 0.0010627277
O 4.0484922300 6.0727383450 6.0727383450 0.0001345788 0.0000000000 -0.0010705387
Ti 2.0242461150 2.0242461150 2.0242461150 0.0094288088 0.0000133394 0.0000133394
Ti 6.0727383450 2.0242461150 2.0242461150 -0.0058864105 -0.0000010327 -0.0000010327
Ti 2.0242461150 6.0727383450 2.0242461150 0.0094288088 -0.0000133394 0.0000133394
Ti 6.0727383450 6.0727383450 2.0242461150 -0.0058864105 0.0000010327 -0.0000010327
Ti 2.0242461150 2.0242461150 6.0727383450 0.0094288088 0.0000133394 -0.0000133394
Ti 6.0727383450 2.0242461150 6.0727383450 -0.0058864105 -0.0000010327 0.0000010327
Ti 2.0242461150 6.0727383450 6.0727383450 0.0094288088 -0.0000133394 -0.0000133394
Ti 6.0727383450 6.0727383450 6.0727383450 -0.0058864105 0.0000010327 0.0000010327
40
Lattice="8.09698446 0 0 0 8.09698446 0 0 0 8.09698446" Properties=species:S:1:pos:R:3:force:R:3 energy=-29834.0166853 frame_id=phonon_disp_002 structure_id=extxyz total_charge=0 stress="-0.0498810747161 0 7.30672932782e-07 0 -0.0498806805271 0 7.30672932782e-07 0 -0.0498761869328" phase_label=cubic
Ba 0.0000000000 0.0000000000 0.0000000000 0.0006981246 -0.0010751256 0.0066335953
Ba 4.0484922300 0.0000000000 0.0000000000 0.0008670089 0.0009080527 0.0066550848
Ba 0.0000000000 4.0484922300 0.0000000000 0.0006981246 0.0010751256 0.0066335953
Ba 4.0484922300 4.0484922300 0.0000000000 0.0008670089 -0.0009080527 0.0066550848
Ba 0.0000000000 0.0000000000 4.0484922300 0.0000992388 -0.0007283580 -0.0041359840
Ba 4.0484922300 0.0000000000 4.0484922300 0.0000966632 0.0007479838 -0.0041472383
Ba 0.0000000000 4.0484922300 4.0484922300 0.0000992388 0.0007283580 -0.0041359840
Ba 4.0484922300 4.0484922300 4.0484922300 0.0000966632 -0.0007479838 -0.0041472383
O 2.0313171828 2.0242461150 0.0070710678 0.0128625808 0.0000000000 -0.0268725795
O 6.0727383450 2.0242461150 0.0000000000 -0.0095160562 0.0000000000 -0.0001426281
O 2.0242461150 6.0727383450 0.0000000000 0.0014610300 0.0000000000 -0.0001429116
O 6.0727383450 6.0727383450 0.0000000000 -0.0014519393 0.0000000000 0.0000327981
O 2.0242461150 2.0242461150 4.0484922300 0.0129024213 0.0000000000 -0.0285246393
O 6.0727383450 2.0242461150 4.0484922300 -0.0093409865 0.0000000000 -0.0001547076
O 2.0242461150 6.0727383450 4.0484922300 0.0014635444 0.0000000000 -0.0001542237
O 6.0727383450 6.0727383450 4.0484922300 -0.0014575647 0.0000000000 -0.0000046558
O 2.0242461150 0.0000000000 2.0242461150 -0.0464396433 0.0000000000 -0.0633005315
O 6.0727383450 0.0000000000 2.0242461150 0.0027807892 0.0000000000 -0.0075351472
O 2.0242461150 4.0484922300 2.0242461150 -0.0015771165 0.0000000000 -0.0075350481
O 6.0727383450 4.0484922300 2.0242461150 0.0037429964 0.0000000000 -0.0017859458
O 2.0242461150 0.0000000000 6.0727383450 0.0008153155 0.0000000000 0.0446022575
O 6.0727383450 0.0000000000 6.0727383450 0.0028083460 0.0000000000 0.0086399040
O 2.0242461150 4.0484922300 6.0727383450 -0.0002860540 0.0000000000 0.0086396004
O 6.0727383450 4.0484922300 6.0727383450 0.0004239581 0.0000000000 0.0018036743
O 0.0000000000 2.0242461150 2.0242461150 -0.0022216791 -0.0161312676 0.0078305736
O 4.0484922300 2.0242461150 2.0242461150 0.0012234434 -0.0017539448 -0.0000613164
O 0.0000000000 6.0727383450 2.0242461150 -0.0022216791 0.0161312676 0.0078305736
O 4.0484922300 6.0727383450 2.0242461150 0.0012234434 0.0017539448 -0.0000613164
O 0.0000000000 2.0242461150 6.0727383450 -0.0021838085 0.0160470096 0.0078800495
O 4.0484922300 2.0242461150 6.0727383450 0.0012152969 0.0017246574 -0.0000439036
O 0.0000000000 6.0727383450 6.0727383450 -0.0021838085 -0.0160470096 0.0078800495
O 4.0484922300 6.0727383450 6.0727383450 0.0012152969 -0.0017246574 -0.0000439036
Ti 2.0242461150 2.0242461150 2.0242461150 -0.0081889298 0.0000000000 0.0001023217
Ti 6.0727383450 2.0242461150 2.0242461150 0.0241379836 0.0000000000 0.0156564970
Ti 2.0242461150 6.0727383450 2.0242461150 -0.0017979068 0.0000000000 -0.0007164718
Ti 6.0727383450 6.0727383450 2.0242461150 0.0016947160 0.0000000000 0.0005970250
Ti 2.0242461150 2.0242461150 6.0727383450 0.0237555085 0.0000000000 0.0154337362
Ti 6.0727383450 2.0242461150 6.0727383450 -0.0082762992 0.0000000000 0.0002309512
Ti 2.0242461150 6.0727383450 6.0727383450 0.0016795946 0.0000000000 0.0006097659
Ti 6.0727383450 6.0727383450 6.0727383450 -0.0017848646 0.0000000000 -0.0007007630
40
Lattice="8.09698446 0 0 0 8.09698446 0 0 0 8.09698446" Properties=species:S:1:pos:R:3:force:R:3 energy=-29834.0165147 frame_id=phonon_disp_003 structure_id=extxyz total_charge=0 stress="-0.0498704118224 0 -0 0 -0.0498820292638 -0 -0 -0 -0.0498820292638" phase_label=cubic
Ba 0.0000000000 0.0000000000 0.0000000000 0.0041046127 0.0117497797 0.0117497797
Ba 4.0484922300 0.0000000000 0.0000000000 0.0040985389 -0.0119081456 -0.0119081456
Ba 0.0000000000 4.0484922300 0.0000000000 0.0041046127 -0.0117497797 0.0117497797
Ba 4.0484922300 4.0484922300 0.0000000000 0.0040985389 0.0119081456 -0.0119081456
Ba 0.0000000000 0.0000000000 4.0484922300 0.0041046127 0.0117497797 -0.0117497797
Ba 4.0484922300 0.0000000000 4.0484922300 0.0040985389 -0.0119081456 0.0119081456
Ba 0.0000000000 4.0484922300 4.0484922300 0.0041046127 -0.0117497797 -0.0117497797
Ba 4.0484922300 4.0484922300 4.0484922300 0.0040985389 0.0119081456 0.0119081456
O 2.0242461150 2.0242461150 0.0000000000 -0.1118083948 0.0000000000 0.0000000000
O 6.0727383450 2.0242461150 0.0000000000 0.1376588320 0.0000000000 0.0000000000
O 2.0242461150 6.0727383450 0.0000000000 -0.0021649486 0.0000000000 0.0000000000
O 6.0727383450 6.0727383450 0.0000000000 0.0024750623 0.0000000000 0.0000000000
O 2.0242461150 2.0242461150 4.0484922300 -0.0021649486 0.0000000000 0.0000000000
O 6.0727383450 2.0242461150 4.0484922300 0.0024750623 0.0000000000 0.0000000000
O 2.0242461150 6.0727383450 4.0484922300 -0.0047014916 0.0000000000 0.0000000000
O 6.0727383450 6.0727383450 4.0484922300 0.0049339493 0.0000000000 0.0000000000
O 2.0242461150 0.0000000000 2.0242461150 0.0183785648 0.0000000000 0.0000832206
O 6.0727383450 0.0000000000 2.0242461150 -0.0134906271 0.0000000000 -0.0000574966
O 2.0242461150 4.0484922300 2.0242461150 0.0020484696 0.0000000000 0.0000285864
O 6.0727383450 4.0484922300 2.0242461150 -0.0020422480 0.0000000000 0.0000579800
O 2.0242461150 0.0000000000 6.0727383450 0.0183785648 0.0000000000 -0.0000832206
O 6.0727383450 0.0000000000 6.0727383450 -0.0134906271 0.0000000000 0.0000574966
O 2.0242461150 4.0484922300 6.0727383450 0.0020484696 0.0000000000 -0.0000285864
O 6.0727383450 4.0484922300 6.0727383450 -0.0020422480 0.0000000000 -0.0000579800
O 0.0000000000 2.0242461150 2.0242461150 0.0183785648 0.0000832206 0.0000000000
O 4.0484922300 2.0242461150 2.0242461150 -0.0134906271 -0.0000574966 0.0000000000
O 0.0000000000 6.0727383450 2.0242461150 0.0183785648 -0.0000832206 0.0000000000
O 4.0484922300 6.0727383450 2.0242461150 -0.0134906271 0.0000574966 0.0000000000
O 0.0000000000 2.0242461150 6.0727383450 0.0020484696 0.0000285864 0.0000000000
O 4.0484922300 2.0242461150 6.0727383450 -0.0020422480 0.0000579800 0.0000000000
O 0.0000000000 6.0727383450 6.0727383450 0.0020484696 -0.0000285864 0.0000000000
O 4.0484922300 6.0727383450 6.0727383450 -0.0020422480 -0.0000579800 0.0000000000
Ti 2.0342461150 2.0242461150 2.0242461150 -0.0407666062 0.0000000000 0.0000000000
Ti 6.0727383450 2.0242461150 2.0242461150 -0.0375182489 0.0000000000 0.0000000000
Ti 2.0242461150 6.0727383450 2.0242461150 -0.0002667686 0.0000000000 0.0000000000
Ti 6.0727383450 6.0727383450 2.0242461150 -0.0001554779 0.0000000000 0.0000000000
Ti 2.0242461150 2.0242461150 6.0727383450 -0.0002667686 0.0000000000 0.0000000000
Ti 6.0727383450 2.0242461150 6.0727383450 -0.0001554779 0.0000000000 0.0000000000
Ti 2.0242461150 6.0727383450 6.0727383450 0.0000039717 0.0000000000 0.0000000000
Ti 6.0727383450 6.0727383450 6.0727383450 0.0000330110 0.0000000000 0.0000000000
40
Lattice="7.8540749262 0 0 0 7.8540749262 0 0 0 7.8540749262" Properties=species:S:1:pos:R:3:force:R:3 energy=-29833.9673738 frame_id=supp_001 structure_id=extxyz total_charge=0 stress="0.0521198920141 -1.74505584507e-05 6.4375899268e-05 -1.74505584507e-05 0.0522443803767 -0.000112341567328 6.4375899268e-05 -0.000112341567328 0.0522275758923" phase_label=cubic
Ba 7.8321319102 0.0216242018 7.8354847316 0.1395009180 -0.2501931804 0.3022843479
Ba 3.9133287457 0.0210435474 0.0173916697 0.1633227380 -0.4734978291 -0.0428257230
Ba 7.8487383379 3.9196725464 7.8271448866 -0.0120641291 0.1001409564 0.3442081242
Ba 3.9231204260 3.9069818455 0.0025558960 0.1099985443 0.4329515623 0.0586639402
Ba 7.8344506071 0.0230653636 3.9386390979 0.3485794022 -0.2138238195 -0.1974481117
Ba 3.9289630974 7.8299473773 3.9213724290 -0.1430872954 0.0311569690 -0.0259626915
Ba 7.8521718590 3.9369783722 3.9402993396 0.1315891436 -0.0352735726 -0.1494982371
Ba 3.9043164715 3.9131876405 3.9286371660 0.1148400809 0.2753150822 -0.0534338462
O 1.9486337804 1.9830666266 0.0072815369 -0.2898991349 -0.2297104477 0.4330627941
O 5.8937001344 1.9333731210 7.8417298047 0.3016816741 -0.1142408374 -0.5900819814
O 1.9567838026 5.8868581901 0.0258990181 0.1005075019 0.3228083154 -0.4461399582
O 5.9147842422 5.8778249514 0.0209234810 -0.2040577802 -0.0044952119 -0.2463517027
O 1.9676513050 1.9852776296 3.9124057884 -0.3631436260 -0.0709211487 -0.4351376658
O 5.9161467326 1.9746142738 3.9546419008 0.3841838148 -0.2454832352 0.6199926060
O 1.9622396063 5.8875493896 3.9174128048 -0.0211883198 0.1038939931 0.3429822471
O 5.9193685837 5.8944169757 3.9180943447 -0.1912470576 0.3194059923 0.1777345448
O 1.9770227466 7.8216671914 1.9412339847 0.1048971135 -0.1204162982 -0.3101152301
O 5.8819809701 0.0144586983 1.9767006537 -0.1557656664 0.2761265439 0.2904569224
O 1.9451941505 3.9484779612 1.9371924435 0.1523989430 0.0185516193 -1.1365751723
O 5.8802815971 3.9384469945 1.9828934241 -0.1931176717 0.0991046573 -0.1858895173
O 1.9511621671 0.0197917563 5.8650465735 -0.0090920436 -0.0830347230 0.1191252600
O 5.9163309542 7.8224527921 5.8733147440 -0.3490308001 -0.0000658351 -0.4257090577
O 1.9751998444 3.9274049682 5.8852899947 -0.0292136591 -0.0201527266 0.5655738851
O 5.9221268328 3.9430102667 5.8971768014 -0.0619710678 -0.0838187261 0.0249644068
O 0.0085479398 1.9761954669 1.9714219081 -0.0854986951 0.7966681566 0.1621613231
O 3.9044581904 1.9816123401 1.9601550112 -0.0227754444 0.1554275337 0.0457819994
O 0.0196475363 5.8990241746 1.9348823649 0.0884128628 -0.6112666792 0.1782944645
O 3.9161649374 5.8741629372 1.9395765620 0.0748057842 -0.5082081124 -0.0368060109
O 7.8378155415 1.9378825071 5.8919340761 0.1271679898 -0.1983378153 0.1884428092
O 3.9137515591 1.9315549947 5.8973170529 -0.2443868058 0.4397954833 0.0513279060
O 7.8535339396 5.8933559161 5.9196694828 -0.0432740678 0.1343831580 0.0458682603
O 3.9592305073 5.8902914739 5.8642297000 -0.2957365935 -0.5379390914 -0.0934356931
Ti 1.9446949522 1.9764641853 1.9605621336 -0.3101811284 -0.0352235822 -0.0030816020
Ti 5.8629868254 1.9887211168 1.9880652506 0.5281041303 -0.0361950591 0.0791533205
Ti 1.9661458406 5.8796545874 1.9877968272 -0.5960149999 -0.0463837186 0.2696023313
Ti 5.9200202210 5.9037979863 1.9671237951 0.4134059570 0.0359977926 0.2414851060
Ti 1.9725017942 1.9382462557 5.9145589281 0.2070435518 0.2530939764 -0.0435503453
Ti 5.8759861935 1.9725413573 5.8688948340 0.2000356023 0.2044128739 -0.0805719046
Ti 1.9651497111 5.8674179200 5.9051932634 0.4736308613 -0.0580910737 -0.2373891821
Ti 5.9031837822 5.8853076971 5.8872798925 -0.5433606271 -0.0224619424 0.1988370341
40
Lattice="7.8540749262 0 0 0 7.8540749262 0 0 0 7.8540749262" Properties=species:S:1:pos:R:3:force:R:3 energy=-29833.5265246 frame_id=supp_002 structure_id=extxyz total_charge=0 stress="0.0557989172953 -0.000352789910179 0.000362024361853 -0.000352789910179 0.0570388844526 -0.000356201783118 0.000362024361853 -0.000356201783118 0.0578271130513" phase_label=cubic
Ba 0.0074136290 7.8168329537 7.8384120407 -0.2895121328 0.3244612468 -0.1262079409
Ba 3.9783766513 0.0099768915 0.0103780520 -0.2757248614 -0.1286045024 0.0985560691
Ba 0.0359984212 3.9590158487 7.8013279152 -0.3148315927 -0.2860983587 0.3091343996
Ba 3.9538096770 3.9147327714 7.8159474742 -0.3305113759 0.1946650685 0.7354622524
Ba 7.8405312372 0.0600594587 3.8915870207 0.2206713245 -0.7345327188 0.4625557194
Ba 3.9087449875 0.0487438086 3.9387784712 -0.0387177618 -0.4694114502 -0.3181343996
Ba 0.0319124727 3.9063329996 3.8998300817 0.0808105229 0.2702141540 0.1657243010
Ba 3.9772981673 3.9311122457 3.9410901861 -0.8089300801 -0.0512812803 -0.6489694882
O 1.9464351422 2.0180745320 0.0452582508 -0.1374472596 -0.1228939691 0.7550971967
O 5.8537411929 1.9945142238 0.0346058528 0.5597319326 0.5157002312 0.0176613723
O 1.9193870589 5.8956598010 0.0252097476 0.5716319219 0.1621378389 0.8150612156
O 5.9361831216 5.8561045069 0.0571005191 -0.3405141651 -0.7187529975 0.0164927542
O 1.9710820638 2.0097011001 3.9277579925 -0.1250099341 0.9405815767 -0.7794657213
O 5.8446748451 1.9106917501 3.9688170676 0.3010347753 -1.5106846786 -0.2246374406
O 2.0118115299 5.8718684096 3.9105134590 -1.4525996417 -0.7775108810 -0.8483020372
O 5.9425487465 5.8426784304 3.9897453312 1.5710277653 1.5197891400 -0.1305548884
O 1.9522358899 0.0055436815 1.9324915463 -0.0112042151 -0.3250479092 -0.7975544439
O 5.8824655154 7.8321619920 2.0249719126 0.1122467365 -0.2499085226 -0.0162813313
O 1.9035238651 3.9045143866 1.9436469293 0.3481157712 0.0128882554 -0.6533558566
O 5.8986162006 3.9875856042 1.9624384737 -0.1583817750 0.3204878697 -0.7479034978
O 2.0058456284 0.0470112167 5.9550919206 -0.1056770270 -0.3786313156 0.4113923940
O 5.8490687342 0.0082309255 5.8672627002 0.0761976960 0.6298111621 -0.3766251675
O 2.0100797552 3.9349807627 5.8917136275 -0.0222998657 0.2967485477 0.6667364940
O 5.8597731612 3.8944264714 5.8943977325 -0.5635695758 0.1827060924 -0.1172673449
O 7.8124727010 1.9153244557 2.0008664764 -0.0340100025 -0.1718441927 0.0767125879
O 3.8924739515 1.9440039200 1.9995858431 -0.0591959620 0.5170444278 -0.2931307851
O 0.0059503539 5.8674655361 2.0051249830 0.3189043017 0.2728964273 0.0057788670
O 3.9274373613 5.8824750721 1.9349370828 -0.0830233045 -1.2782858371 0.2911060411
O 7.8295480481 1.9180352270 5.8570502253 -0.1881652875 -0.7521770701 -0.1731233207
O 3.8762591386 1.9670246631 5.8854895138 0.0550229298 -0.2651051604 0.4610856184
O 0.0130125006 5.8931903249 5.8497549513 -0.1926436510 0.5282398689 0.1969183588
O 3.9272448879 5.9191128039 5.9286746790 0.0570221181 0.4191303732 0.1193130172
Ti 1.9652197437 1.9896859753 1.9153003482 -0.2643100767 0.3013848253 -0.3120874892
Ti 5.8719141871 1.9611238797 1.9418329547 0.6006454339 0.2225086337 -0.2492917016
Ti 1.9250571306 5.8991636587 1.9190866926 0.0962493077 0.2942499069 -0.1447149164
Ti 5.8882030246 5.9154853738 1.9292329927 0.0676777842 0.0362629250 0.1550242514
Ti 1.9999579267 1.9124150943 5.9013919661 -0.0639851391 0.4007927694 0.4647724916
Ti 5.9109992374 1.9981295522 5.8691371140 0.5260130348 0.0618808841 0.3051073694
Ti 2.0176862094 5.8928227389 5.8856477161 0.1175432014 -0.0030345060 0.3888639611
Ti 5.8424295013 5.8373356240 5.8359357541 0.1797181290 -0.2007768745 0.0390510388
40
Lattice="7.9755296931 0 0 0 7.9755296931 0 0 0 7.9755296931" Properties=species:S:1:pos:R:3:force:R:3:bec:R:9 energy=-29834.5174934 frame_id=supp_003 structure_id=extxyz total_charge=0 stress="-0.00418606860072 -1.41456756509e-06 -6.3636097192e-05 -1.41456756509e-06 -0.003888989099 -3.28108609154e-05 -6.3636097192e-05 -3.28108609154e-05 -0.00439115547075" phase_label=cubic
Ba 7.9633458892 7.9612504300 0.0019553780 0.0652889372 0.1661416802 0.0907968789 2.7444810000 -0.0016455100 -0.0050861100 0.0303670800 2.7180033000 -0.0112193600 0.0134632400 0.0104714100 2.7268292000
Ba 3.9777687082 7.9722053958 7.9505349636 0.0304556904 0.0228622422 0.1891503088 2.7384973400 0.0432319500 -0.0529554000 -0.0324613600 2.7180033000 -0.0351540100 -0.0224387300 -0.0134632400 2.7328128700
Ba 0.0266289466 3.9851076123 0.0077934076 -0.2765383421 0.0216400075 0.0774616278 2.7564483300 -0.0016455100 -0.0140616000 0.0124161000 2.7479216100 0.0007479600 -0.0134632400 -0.0074795800 2.6879354100
Ba 4.0173389522 3.9656340166 7.9509905235 -0.1450624017 0.1925673784 0.1711732788 2.7444810000 -0.0345556400 -0.0290207600 -0.0085267200 2.7299706300 -0.0022438700 0.0104714100 0.0014959200 2.7238373700
Ba 0.0011136064 0.0095346219 4.0171124951 -0.0302093652 0.0076755267 -0.3473329814 2.7175545300 0.0252809700 0.0338076900 0.0543017300 2.7150114700 0.0157071100 0.0373978800 -0.0224387300 2.7597393400
Ba 3.9666668496 7.9598353252 4.0036973103 0.1317664590 0.2816411271 -0.1521203291 2.7115708700 0.0372482900 0.0248321900 -0.0474205100 2.7299706300 0.0306662600 -0.0224387300 -0.0164550700 2.7537556800
Ba 7.9608455370 3.9670888563 4.0122395701 0.0829663890 0.1551419965 -0.3175569575 2.7205463600 -0.0225883200 0.0098730400 -0.0025430600 2.7509134400 -0.0052357000 0.0044877500 0.0194469000 2.7148618800
Ba 4.0080526775 4.0030722485 3.9762660802 -0.1466455993 -0.1993433507 0.0533152358 2.7115708700 -0.0435311400 0.0308158600 -0.0085267200 2.7509134400 0.0097234500 -0.0014959200 0.0284223900 2.7387965300
O 2.0122896323 1.9987853466 7.9744892958 0.1349145231 -0.4130474776 -0.0239107938 -2.1681048400 0.0192973100 0.0038893800 0.0124161000 -2.1616724000 0.0067316200 0.0014959200 -0.0164550700 -5.8208308200
O 6.0098647746 1.9740373714 7.9748819456 0.0945471143 -0.2504845056 -0.3933382665 -2.1471620300 0.0163054800 -0.0469717400 0.0124161000 -2.1616724000 -0.0201948600 0.0284223900 0.0014959200 -5.7729615300
O 1.9846783369 5.9692956805 7.9703277275 0.2212748765 0.2723175847 -0.5390995819 -2.1441701900 -0.0225883200 -0.0140616000 -0.0175022100 -2.1586805700 -0.0261785200 -0.0104714100 -0.0104714100 -5.8298063100
O 6.0098085131 5.9646393115 7.9579335361 -0.0288193518 0.2942763429 -0.2496275076 -2.1710966700 -0.0136128300 -0.0529554000 -0.0055348900 -2.1616724000 -0.0022438700 -0.0224387300 -0.0104714100 -5.7759533600
O 2.0002325127 2.0093658424 3.9938540010 0.4713468963 -0.4294089618 0.0229525619 -2.1740885000 0.0133136500 0.0158567000 0.0064324400 -2.1616724000 0.0186989400 0.0044877500 0.0104714100 -5.8567327900
O 6.0077938476 1.9800891698 3.9755376435 -0.5331187883 -0.3410442315 0.4830372720 -2.1292110400 0.0043381500 0.0188485300 0.0004487700 -2.1257704400 0.0216907700 -0.0463733700 0.0134632400 -5.8986184100
O 2.0222976594 5.9583512963 3.9968876733 0.3438318356 0.3169457517 0.5417624241 -2.1142518900 -0.0076291700 0.0248321900 -0.0055348900 -2.1227786100 0.0067316200 0.0314142200 0.0224387300 -6.0033324800
O 5.9989701383 5.9857173732 3.9713171013 -0.3079199013 0.2723171273 0.4549236114 -2.1681048400 -0.0076291700 0.0397913500 -0.0025430600 -2.1377377600 0.0037397900 0.0074795800 -0.0074795800 -5.8806674300
O 1.9667496966 0.0293073501 1.9681163272 -0.1818789762 0.0689730673 -0.1168147971 -2.1471620300 0.0282728000 -0.0050861100 0.0333589100 -5.8446158700 0.0127152800 -0.0074795800 -0.0224387300 -2.1707974900
O 5.9918274832 7.9501304720 2.0046155199 -0.1545193605 0.1438200879 0.0678257668 -2.1441701900 0.0462237800 0.0068812100 0.0453262300 -5.8176894000 -0.0381458400 0.0074795800 -0.0074795800 -2.1558383300
O 1.9839995302 3.9682171765 2.0040615547 0.0238262135 -0.0250693487 0.1078529031 -2.1262192100 -0.0315638100 -0.0170534300 -0.0414368500 -5.9762564200 -0.0172030300 -0.0194469000 0.0194469000 -2.1528465000
O 5.9706617354 4.0021977056 1.9701564248 -0.1439796293 0.0754639787 -0.0130809844 -2.1561375200 -0.0285719800 0.0008975500 -0.0414368500 -5.8416240400 0.0336580900 0.0044877500 0.0164550700 -2.1678056600
O 1.9847281499 0.0177258801 5.9630018055 -0.1198520045 0.0053040207 0.0661677063 -2.1890476500 0.0103218200 -0.0080779400 0.0213915900 -5.7399018000 -0.0291703500 -0.0104714100 0.0074795800 -2.1558383300
O 5.9632228405 0.0109450712 5.9984725029 -0.1381248090 0.1580940477 0.0545958146 -2.1621211800 0.0342564600 0.0068812100 -0.0025430600 -5.7817874300 -0.0201948600 0.0104714100 -0.0194469000 -2.1408791800
O 2.0051607330 3.9722925223 5.9926060641 -0.2847630905 0.0517026385 -0.1269863805 -2.1351947000 -0.0225883200 -0.0020942800 -0.0175022100 -5.9553136000 0.0306662600 -0.0074795800 -0.0044877500 -2.1259200300
O 5.9680860764 3.9786919026 5.9960788843 -0.0683785453 -0.1318530326 0.4656012180 -2.1501538600 -0.0195964900 0.0218403600 0.0004487700 -5.8266648900 0.0216907700 0.0224387300 0.0164550700 -2.1468628400
O 7.9586238774 1.9859447386 2.0030330423 0.0825462621 -0.5832425288 0.2821593411 -5.8600238000 0.0013463200 0.0218403600 0.0094242700 -2.1526969100 0.0007479600 -0.0014959200 0.0014959200 -2.1618220000
O 3.9654473826 1.9989253999 2.0167252446 -0.1859276094 0.1911104406 -0.0714254185 -5.8719911200 -0.0076291700 -0.0110697700 -0.0234858700 -2.1407295900 0.0007479600 0.0044877500 -0.0014959200 -2.1528465000
O 7.9493556670 5.9971340406 2.0065702566 -0.0764370375 0.5016163834 -0.0104821460 -5.9168685800 0.0252809700 -0.0379962500 0.0513098900 -2.1287622700 0.0037397900 0.0104714100 0.0014959200 -2.1558383300
O 3.9846923913 5.9904977903 2.0046920479 0.0399492370 -0.4556663892 0.2103749479 -5.8330973200 -0.0166046600 0.0278240200 -0.0175022100 -2.1347459300 0.0097234500 -0.0044877500 0.0074795800 -2.1767811500
O 7.9709498591 1.9971486714 5.9714193596 -0.0171497674 -0.3059370802 0.0615697381 -5.8749829500 0.0043381500 -0.0230371000 0.0064324400 -2.1377377600 0.0007479600 0.0254305600 0.0014959200 -2.1438710100
O 4.0039778432 1.9772229537 5.9840528591 0.1733216303 -0.3300756694 -0.2537673794 -5.7104322700 -0.0195964900 0.0128648700 -0.0115185500 -2.1796233900 -0.0082275300 -0.0344060500 -0.0074795800 -2.1588301600
O 7.9696257977 6.0088607199 5.9832949872 -0.1784447945 0.3559436440 -0.1381902880 -5.9258440700 0.0462237800 -0.0110697700 0.0453262300 -2.1407295900 -0.0022438700 0.0014959200 -0.0014959200 -2.1229282000
O 3.9898960881 5.9801664872 5.9748940843 0.1943151320 0.0496862794 -0.2547916308 -5.7852280300 -0.0255801500 0.0098730400 -0.0384450200 -2.1706479000 -0.0022438700 -0.0134632400 -0.0014959200 -2.1438710100
Ti 1.9736632049 2.0140784125 1.9987330198 0.0792136700 0.1918520782 0.0083048332 7.4805488400 0.0192973100 -0.0050861100 0.0363507400 7.6216136600 0.0426335900 -0.0194469000 0.0254305600 7.4240032400
Ti 5.9645972678 2.0180841148 2.0137580475 0.4367017709 -0.0052223148 -0.0889566699 7.4207122300 -0.0465229700 0.0098730400 -0.0324613600 7.2865286300 -0.0441295000 0.0044877500 -0.0134632400 7.4180195800
Ti 2.0013082749 5.9756852049 2.0111387356 0.5252525057 -0.2125016005 0.0423524396 7.3548919600 -0.0136128300 0.0338076900 -0.0354531900 7.3702998900 -0.0411376700 0.0732998500 -0.0284223900 7.4748643700
Ti 6.0033859405 5.9994626193 1.9886990488 -0.4526682722 -0.0722308973 -0.0662932605 7.5134589800 0.0133136500 -0.0170534300 0.0124161000 7.4510793100 0.0456254200 -0.0314142200 0.0344060500 7.4389624000
Ti 1.9664072200 2.0077916954 5.9822697546 0.1656132592 0.0918135214 0.0402723384 7.3249736500 -0.0225883200 0.0367995200 0.0183997600 7.5139077500 0.0366499200 0.0463733700 0.0074795800 7.3940849400
Ti 5.9878209698 2.0146628815 5.9733970274 0.0246561990 0.1900945996 -0.1011849743 7.3967775900 0.0222891400 -0.0230371000 0.0213915900 7.4032100200 -0.0142112000 -0.0254305600 -0.0104714100 7.3791257900
Ti 1.9780820755 5.9596817672 5.9605628274 0.2073087757 -0.2882531527 -0.1951822484 7.4087449100 -0.0345556400 -0.0529554000 -0.0354531900 7.3373897500 -0.0351540100 -0.0643243600 -0.0074795800 7.5376928100
Ti 5.9916865615 5.9917283859 5.9554851694 -0.0586597307 -0.0356210112 -0.0315076508 7.4596060300 0.0342564600 0.0367995200 -0.0025430600 7.3164469300 0.0007479600 0.0284223900 -0.0164550700 7.3671584600
40
Lattice="7.9755296931 0 0 0 7.9755296931 0 0 0 7.9755296931" Properties=species:S:1:pos:R:3:force:R:3 energy=-29834.0088564 frame_id=supp_004 structure_id=extxyz total_charge=0 stress="-0.00062834178438 3.20361707385e-05 -0.000342689564714 3.20361707385e-05 0.00136425566409 0.000157235207501 -0.000342689564714 0.000157235207501 -0.000257792489189" phase_label=cubic
Ba 0.0405527217 7.9527163872 7.9476600391 -0.3539577098 0.3873117315 0.6485260257
Ba 4.0482374082 0.0486131824 0.0067154387 -0.4047653771 -0.5140685908 0.2477710632
Ba 7.9384093229 3.9342373299 0.0487551238 0.0354410444 0.1470008137 -0.4875864099
Ba 3.9698658616 3.9819286811 7.9486245940 0.3369257054 0.1801955748 0.0651846470
Ba 7.9698124385 7.9228867199 3.9966454530 0.0005352901 0.5309459860 -0.4764251035
Ba 3.9481225702 0.0326210098 4.0362678699 0.2716711867 -0.4074889952 -0.6111263748
Ba 0.0225545770 3.9584469377 3.9691968253 -0.4707275408 0.1278720197 0.3812974885
Ba 3.9381014887 3.9912011392 3.9945071775 0.6336227092 0.2748009348 0.0579130074
O 1.9635452831 2.0242286919 0.0231578173 -0.8924006148 -1.8032027416 -0.3137053221
O 5.9581087216 1.9572129462 7.9358703466 0.5074913162 -0.7424356345 0.4161375895
O 1.9832038004 5.9724809955 0.0078528296 0.3958358690 1.3623852777 0.3442270882
O 6.0237521413 5.9273094047 0.0016071925 -0.6097774222 0.7754111395 -0.0910404589
O 1.9890232236 2.0436917095 3.9359569936 -0.3625939719 0.2890231086 0.4679828534
O 6.0218641464 1.9925114579 3.9876624879 0.4226278721 0.2384450710 -0.1838550131
O 1.9641441318 5.9502728580 3.9536056470 0.3020293283 0.0227460469 -0.1102385713
O 5.9971926931 6.0223893782 4.0052927431 -0.0561011801 -0.4184138844 -0.0583979549
O 2.0462388038 0.0516926781 2.0050754587 0.3420219350 -0.2071860275 -0.8378776555
O 6.0071761151 7.9489285310 1.9949068581 0.1861911798 0.2910366754 0.0084439071
O 1.9736589493 3.9206434912 1.9966272106 0.0333655604 -0.2272402505 0.0145960100
O 5.9493389172 3.9996912139 2.0039804783 -0.3303348063 0.3418363540 -0.0562865587
O 1.9449405884 7.9526179209 6.0191159706 0.2607486059 -0.2485054791 0.8939064206
O 5.9560616491 7.9743535531 5.9537780305 -0.3945042070 0.0655190659 -0.2079275377
O 2.0046164140 3.9310186609 6.0189021432 0.0854681119 -0.0509082752 0.2197794572
O 6.0324975623 4.0143062975 5.9997381938 -0.0604574060 -0.3822070597 0.1460023754
O 0.0386027833 2.0286902324 2.0509928332 -0.2037663046 -0.8585688345 -0.1084773197
O 4.0398460185 1.9726365639 1.9554898341 -0.0691535831 0.7786032145 -0.0529693276
O 7.9356310758 6.0156911102 1.9434388756 0.4094009284 1.8870342614 -0.1726424202
O 4.0493284246 6.0130437156 1.9500006361 0.2260499825 -0.4628744032 0.0310725311
O 0.0071109740 1.9686579563 5.9834194168 0.4871149847 -0.3812465568 -0.3002112356
O 3.9579033477 2.0445354024 5.9277453648 -0.0750610235 0.2156838426 0.2516572073
O 7.9331869218 6.0301873424 6.0133226688 -0.3802732594 0.5799061622 -0.2231289058
O 3.9716517071 5.9468106323 5.9700958689 -0.3171765541 -0.7220047225 -0.2024730728
Ti 2.0099430658 2.0309752913 2.0351750301 -0.5422344045 -0.1039163748 -0.4513616515
Ti 5.9489575811 1.9901854028 2.0332639244 0.0611020654 0.3499709980 0.2839324997
Ti 2.0000945696 5.9141717389 1.9562951844 1.2364382263 -0.5099225186 0.2697531761
Ti 6.0142081726 5.9381080053 1.9577833680 -1.3376702632 -0.4249793301 0.1698858614
Ti 1.9633529152 2.0320438582 6.0115915327 0.0571403866 0.1018725356 -0.1021686130
Ti 5.9508051121 2.0167421986 6.0062866404 0.3713265732 -0.3610790147 0.2429635136
Ti 1.9905453132 6.0195851811 5.9970949117 0.8545526081 -0.3385798912 -0.1973981396
Ti 6.0084063501 6.0180577477 5.9515651561 -0.6561458413 0.2172277711 0.0842649238
40
Lattice="8.2184392269 0 0 0 8.2184392269 0 0 0 8.2184392269" Properties=species:S:1:pos:R:3:force:R:3:bec:R:9 energy=-29832.2188282 frame_id=supp_005 structure_id=extxyz total_charge=0 stress="-0.0845949026821 1.99212235547e-05 -0.000108822500591 1.99212235547e-05 -0.0843634220699 0.000116588286732 -0.000108822500591 0.000116588286732 -0.0842746421332" phase_label=cubic
Ba 0.0172565861 0.0027035167 8.2086525673 -0.2684321557 -0.0695054172 0.1598760540 2.6728176200 -0.0077748100 -0.0603161900 -0.0234881200 2.6710989800 0.0122760200 -0.0082658600 0.0079385000 2.6794466800
Ba 4.1166104898 0.0142739774 8.2120805618 0.1232187296 -0.0326176692 0.0907427265 2.6662704100 -0.0012276000 -0.0079385000 0.0092479400 2.6710989800 0.0155496300 -0.0049922500 0.0079385000 2.6859938900
Ba 8.2174029692 4.0960659661 0.0084876979 0.1932910180 0.1066381271 0.0707686806 2.7022800800 -0.0012276000 -0.0406745600 0.0092479400 2.6383629200 -0.0040920100 0.0179229900 -0.0051559300 2.6827202800
Ba 4.1352902839 4.1261295765 8.1908375524 -0.3389418803 -0.1145856742 0.2184660996 2.6891856600 0.0085932200 -0.0308537400 0.0027007300 2.6612781600 0.0024552000 -0.0311811000 -0.0018823200 2.6696258600
Ba 8.2129132735 0.0185388570 4.1237561439 -0.1982625929 -0.2238763924 -0.1425339356 2.6760912300 -0.0012276000 0.0477128100 -0.0267617300 2.6907406200 -0.0139128300 -0.0115394600 0.0177593100 2.6663522500
Ba 4.0871454823 8.2064668151 4.1080241100 0.2914268247 0.0242727057 -0.0158152692 2.6597232000 0.0085932200 0.0182503500 0.0256159700 2.6972878300 -0.0171864300 0.0277438100 0.0210329200 2.6761730700
Ba 8.2150683919 4.1009251745 4.1206403418 0.1268190485 0.1733293498 -0.1221258228 2.6760912300 -0.0339636600 0.0477128100 -0.0300353400 2.6710989800 0.0057288100 -0.0082658600 -0.0215239600 2.6794466800
Ba 4.1194113392 4.0872622644 4.0909875797 -0.1854417419 0.1206247505 0.0127626700 2.6531759900 0.0216876400 0.0247975700 0.0354367900 2.6972878300 0.0024552000 0.0244702100 -0.0247975700 2.6663522500
O 2.0574909217 2.0726071676 0.0264673532 0.2553114464 0.8513273856 -0.0735922548 -2.1295626800 0.0053196100 -0.0112121000 0.0092479400 -2.1149132900 -0.0270072500 -0.0017186400 0.0406745600 -5.9726945200
O 6.1881004235 2.0524847027 8.1980117242 -0.0855315782 -0.4889780557 0.0357790930 -2.1001002200 -0.0012276000 -0.0472217700 -0.0071200900 -2.1018188600 0.0286440500 -0.0017186400 -0.0149767500 -6.0152514000
O 2.0640041653 6.1534139960 0.0269988658 0.0043222138 -0.5064964096 0.1445955089 -2.0968266100 0.0053196100 -0.0341273400 0.0092479400 -2.1050924700 0.0155496300 -0.0475491300 -0.0215239600 -6.0250722200
O 6.1342789561 6.1512199308 0.0199078446 0.0210734994 0.4028643602 0.2358021429 -2.1099210400 -0.0110484200 -0.0406745600 -0.0103937000 -2.1509229600 -0.0040920100 -0.0508227400 0.0177593100 -6.0217986100
O 2.0736786007 2.0820011142 4.1059578578 0.1453637186 0.4613751773 -0.2860995136 -2.1459307100 -0.0012276000 0.0411656000 -0.0005728800 -2.1411021400 0.0024552000 0.0146493900 -0.0215239600 -5.8908543600
O 6.1641070515 2.0285542763 4.1180429346 -0.4009339999 -0.1412726551 0.1019360112 -2.1099210400 0.0151404300 0.0215239600 0.0125215400 -2.0887244400 -0.0139128300 -0.0082658600 0.0112121000 -5.9694209100
O 2.0538286475 6.1919395212 4.0853359138 -0.0434334762 -0.3346559862 0.0169287148 -2.1001002200 -0.0110484200 0.0411656000 -0.0103937000 -2.0985452600 -0.0008184000 0.0473854500 0.0013912800 -5.9923361500
O 6.1733164830 6.1382592302 4.1168584428 -0.0544705498 0.3139730328 -0.5699177371 -2.1590251300 -0.0045012100 0.0182503500 -0.0005728800 -2.1509229600 -0.0139128300 0.0375646300 -0.0117031400 -5.8908543600
O 2.0653844008 8.2136996006 2.0745131035 -0.0691906442 -0.3244740899 -0.1538095608 -2.1197418600 0.0020460000 -0.0112121000 0.0354367900 -6.0988920400 0.0613801200 -0.0082658600 0.0635898000 -2.1098392000
O 6.1495196781 8.2033013832 2.0263931890 -0.0730993518 0.0428645071 0.0636906265 -2.1197418600 0.0053196100 -0.0079385000 0.0092479400 -5.9384853300 -0.0204600400 -0.0082658600 0.0013912800 -2.1327544400
O 2.0537419939 4.0863157466 2.0269157077 -0.0473405947 0.2312891359 -0.6722029143 -2.1655723400 0.0085932200 -0.0144857100 -0.0333089400 -5.8664660000 -0.0531961000 -0.0148130700 -0.0280711700 -2.1523960800
O 6.1916240295 4.1298785530 2.0339661594 0.1534265747 -0.0157347484 -0.2075521756 -2.0935530100 -0.0143220300 0.0051559300 -0.0071200900 -6.0596087600 0.0384648700 0.0081021800 -0.0084295400 -2.1131128000
O 2.0347676178 0.0047831862 6.1675443994 -0.1688367834 -0.2679671751 0.4213568321 -2.1033738300 -0.0110484200 0.0084295400 -0.0071200900 -6.0890712200 0.0482856900 0.0048285700 0.0308537400 -2.0967447700
O 6.1504152036 8.2041405548 6.1748643648 0.0758247588 0.2220596160 -0.2771496054 -2.1426571000 0.0053196100 0.0117031400 -0.0333089400 -5.9286645100 -0.0008184000 0.0113757800 -0.0378919900 -2.1163864100
O 2.0391467678 4.1022910642 6.1714776954 -0.0306820942 -0.1191695485 0.0979672302 -2.1033738300 0.0184140300 -0.0046648900 0.0059743300 -5.9646741800 -0.0368280700 -0.0082658600 -0.0509864200 -2.0934711700
O 6.1646186898 4.1042463974 6.1852465177 -0.0414145712 0.0388433808 0.1808062408 -2.1295626800 -0.0175956300 0.0117031400 0.0387103900 -6.0072310600 -0.0171864300 0.0113757800 0.0472217700 -2.1196600200
O 0.0052763007 2.0481848592 2.0413953789 -0.0722859447 -0.0326605716 -0.1493244198 -6.0317012700 0.0642445200 0.0346183900 -0.0693186100 -2.0952716500 0.0024552000 0.0244702100 -0.0018823200 -2.1229336200
O 4.0902563489 2.0674299887 2.0585988030 0.0932836701 0.4231257697 0.1000514610 -5.9564083300 -0.0699733300 -0.0210329200 0.0779936700 -2.1083660700 -0.0204600400 -0.0180866700 -0.0215239600 -2.1196600200
O 8.2082798469 6.1670839539 2.0545857312 -0.0409762706 0.1532767824 0.2168151716 -5.9924179900 -0.0601525100 -0.0603161900 0.0223423600 -2.1411021400 0.0024552000 -0.0082658600 0.0046648900 -2.1229336200
O 4.1290064292 6.1646972805 2.0740400726 -0.1280596874 -0.5218442907 0.0952277138 -5.9760499600 0.0675181300 0.0608072400 -0.0300353400 -2.1411021400 -0.0040920100 0.0277438100 0.0013912800 -2.1360280500
O 0.0173675333 2.0600306823 6.1594410243 0.0294074222 -0.1620230130 0.0647928450 -5.9956916000 0.0184140300 0.0182503500 -0.0431297600 -2.1214605000 0.0024552000 0.0375646300 0.0013912800 -2.1098392000
O 4.1146467957 2.0621283775 6.1706378977 0.1433094175 0.0939414117 0.0432319566 -5.9203986600 -0.0208692400 -0.0275801300 0.0387103900 -2.1280077100 0.0090024200 -0.0377283100 0.0046648900 -2.1163864100
O 8.1948287843 6.1606049434 6.1414900964 0.0621911141 0.2438672324 -0.0109218177 -6.0087860300 -0.0372372700 -0.0144857100 0.0223423600 -2.1181868900 -0.0073656100 -0.0606435500 -0.0084295400 -2.0869239500
O 4.1225664092 6.1863592257 6.1437532326 0.0005701237 -0.1650219417 -0.0738833355 -5.9891443900 0.0446028800 0.0051559300 -0.0300353400 -2.1116396800 0.0122760200 0.0310174200 0.0144857100 -2.1032919900
Ti 2.0447253206 2.0286983509 2.0301798351 -0.2784259020 -0.0733094287 0.0976733014 7.6683406900 0.0085932200 0.0280711700 -0.0136673100 7.5716874700 -0.0531961000 0.0342910200 -0.0182503500 7.5800351600
Ti 6.1679821023 2.0688750647 2.0596274933 0.4923906774 -0.0823911103 -0.0821082416 7.4621035000 -0.0045012100 -0.0243065300 0.0485312100 7.4440168200 -0.0008184000 -0.0475491300 -0.0215239600 7.4720061600
Ti 2.0659217875 6.1925976283 2.0810028299 0.1130506489 0.0541368693 -0.0573595069 7.4621035000 0.0053196100 0.0215239600 0.0125215400 7.5029417400 0.0712009300 -0.0115394600 0.0635898000 7.6880641700
Ti 6.1743966332 6.1430315134 2.0319619600 -0.2960590975 -0.0422477844 -0.0747495865 7.6126893800 -0.0143220300 0.0051559300 -0.0562241900 7.7059053200 -0.0106392200 0.0441118400 -0.0247975700 7.5669407400
Ti 2.0342291185 2.0471381136 6.1543993683 0.0837477372 -0.0835358388 0.0203951661 7.5406700500 0.0085932200 -0.0112121000 0.0125215400 7.6502540200 0.0057288100 -0.0213602800 -0.0051559300 7.4098076400
Ti 6.1656095173 2.0644633594 6.1771694872 0.0812841596 -0.0633063465 0.0303191881 7.5013867700 -0.0012276000 0.0084295400 0.0157951500 7.4898473100 0.0122760200 0.0310174200 0.0308537400 7.6193184400
Ti 2.0304323592 6.1811832089 6.1932823004 0.5478455337 0.0509548131 0.2728264220 7.4653771100 0.0315084600 0.0182503500 0.0027007300 7.5487722200 -0.0302808600 0.0342910200 -0.0542600200 7.4163548500
Ti 6.1425760317 6.1547754149 6.1752503985 -0.2153394199 -0.1430902600 0.1763338404 7.6912559300 -0.0274164500 -0.0275801300 -0.0234881200 7.5585930400 -0.0008184000 -0.0508227400 0.0144857100 7.4720061600
40
Lattice="8.2184392269 0 0 0 8.2184392269 0 0 0 8.2184392269" Properties=species:S:1:pos:R:3:force:R:3 energy=-29831.90482 frame_id=supp_006 structure_id=extxyz total_charge=0 stress="-0.0815478854159 -0.000117504717461 -0.000162218394579 -0.000117504717461 -0.0814592685981 0.000397054811186 -0.000162218394579 0.000397054811186 -0.08241459923" phase_label=cubic
Ba 8.1996110184 8.1831972345 0.0090705466 0.0783613647 0.1444291604 -0.1675153786
Ba 4.1518559866 0.0599356407 0.0055960387 -0.1580670203 -0.2070255501 -0.3850327330
Ba 8.1749959978 4.1229090458 8.1732289907 0.3558831403 -0.0279559783 0.3900410946
Ba 4.1164165708 4.0897940240 8.1901131365 -0.1728037715 0.0186377353 0.2295260196
Ba 0.0207606770 8.1758519260 4.0561420898 -0.1260605519 0.1535207193 0.4406282705
Ba 4.0981585831 8.1701692328 4.0874441651 0.1469089977 0.2991729917 0.4828508452
Ba 0.0173539314 4.1349701762 4.0483470087 -0.0703821003 -0.0344064846 0.1100626970
Ba 4.0460066258 4.0541945103 4.1614961608 0.3191923635 0.1040317918 -0.2574992093
O 2.0078591868 2.1174259150 8.1609520057 -0.5856806961 0.1563072890 -0.1192686832
O 6.1606552217 2.1137354201 8.2115400654 0.0245041640 0.1496345223 0.3084372710
O 2.0744113487 6.1652557102 0.0424727440 -0.1971305332 -0.8083938109 -0.4582331052
O 6.1205878370 6.1158182497 0.0403940696 -0.3102696023 -1.1204748874 -0.4438952994
O 2.0021312265 2.0918219723 4.1048297203 1.1987753968 0.4320280789 0.4603093556
O 6.1775666216 2.0468165038 4.1285416846 -0.2206809624 -0.7303033950 -0.2906052293
O 2.0386461789 6.2197202217 4.1621299059 -0.4232115917 0.4503157046 -0.6985128891
O 6.2002277333 6.1518492177 4.1507744133 -0.0255910974 0.5317256387 -0.2328609390
O 2.0961880507 0.0627201772 2.1066840491 0.0990448585 -0.6120655976 0.3424686451
O 6.1637723622 0.0161834227 2.0152850090 0.0541684802 -0.2284292650 0.0151101394
O 2.0976038489 4.1043190982 2.0027077774 -0.0582981659 0.2270341519 0.4062971622
O 6.0994573732 4.1667834716 2.0744282591 0.3787313695 0.4238845545 -0.1565631963
O 2.0899148919 8.1692026315 6.1077493323 0.1418880806 -0.1508158484 -0.0608233343
O 6.1414566758 0.0054702416 6.1442082560 -0.0318452924 0.1967112249 -0.5968155710
O 2.1073572525 4.0671181971 6.1478468283 0.2984616071 -0.5039817301 -0.1510595600
O 6.1556742234 4.1354748800 6.1952387866 -0.2852967281 0.1577846084 -0.1313040779
O 0.0427978394 2.0163437385 1.9932183028 0.0767357420 -0.1691479382 -0.4248303710
O 4.1335171629 2.0108144334 2.0708712762 0.0346898122 0.2687250607 0.2036791005
O 0.0327144954 6.2106456838 2.0877387184 -0.0949477373 0.5836766212 0.4098277394
O 4.1501794564 6.1221342265 2.0079388968 0.6054739138 -0.2321729599 0.1042563890
O 8.1657704335 2.0747185859 6.1667584295 -0.2718172373 0.0551914969 0.4234875944
O 4.0478565271 2.0352330845 6.2212096542 0.0292036933 -0.1481363807 0.3831046088
O 0.0157388058 6.2041258518 6.2087568837 -0.5906858932 0.2487773778 -0.0242970637
O 4.1116181694 6.1103560862 6.2061460950 0.0818505136 -0.3006534112 -0.1995924199
Ti 2.0914277325 2.0156848954 2.0368218372 -0.5609997533 0.2314695280 0.3041991568
Ti 6.1735483118 2.0232011274 2.0768982717 -0.0008584452 0.1514869522 -0.0961126899
Ti 2.1003628300 6.1547420990 2.0095026272 0.0905650767 -0.1412833526 -0.1865550174
Ti 6.1549965553 6.1696573617 2.0735453306 -0.5126472206 0.5964220660 0.5726945836
Ti 2.0084910676 2.0525362482 6.1375411303 -0.0828822642 -0.0503027420 0.0084694033
Ti 6.2138748759 2.1064507311 6.1981911243 0.0609171501 0.0794789977 -0.4349726042
Ti 2.0421845632 6.1747825400 6.1673593146 0.3453327153 -0.3918033666 0.0675446708
Ti 6.1065970611 6.1466207241 6.1790656017 0.3594682250 0.1969064268 -0.1466453750
40
Lattice="8.3398939938 0 0 0 8.3398939938 0 0 0 8.3398939938" Properties=species:S:1:pos:R:3:force:R:3 energy=-29829.6875718 frame_id=supp_007 structure_id=extxyz total_charge=0 stress="-0.112016039928 -1.57841357584e-05 4.38137820202e-05 -1.57841357584e-05 -0.112142419948 4.46088640187e-05 4.38137820202e-05 4.46088640187e-05 -0.11215628712" phase_label=cubic
Ba 0.0264503599 8.3131673738 0.0141937742 -0.1314559391 0.0797451287 -0.3208609044
Ba 4.1890841741 0.0289629348 0.0025671353 -0.0564512079 -0.0709578793 0.1270067897
Ba 0.0190225558 4.1682492172 0.0160015182 -0.2359478416 -0.0675359534 -0.2069135052
Ba 4.1744325233 4.1608027313 8.3342528783 0.1135944825 -0.0506737999 0.2175531467
Ba 8.3241553678 0.0288962904 4.1715497258 0.0892652404 -0.4329871718 0.2392641529
Ba 4.1489369284 0.0026977074 4.1925526497 -0.0059968998 -0.2171276462 -0.2455684271
Ba 8.3324717729 4.1516424252 4.1638007864 -0.0813864728 0.3288383382 0.1494639057
Ba 4.1667186121 4.1445715992 4.1778643168 0.0763589159 0.2147857354 -0.2508750501
O 2.1140691268 2.1155561756 8.3268394624 0.8718274709 0.1443179109 -0.1915591922
O 6.2663079610 2.1103994852 0.0086567566 -0.3228667503 0.5397153546 -0.4003042730
O 2.0630594668 6.2297615202 8.3294718010 0.6953456213 -0.2269526739 0.5757934877
O 6.2506472906 6.2651094519 0.0198394632 -0.1507107983 -0.4967735043 0.1871301600
O 2.0814420612 2.0820290733 4.1895950449 -0.1839778456 0.1488119538 -0.0289410892
O 6.2515829623 2.1042302913 4.1595191137 0.4573277644 0.4378901917 0.3578086552
O 2.0632718973 6.2828068666 4.1643463957 -0.3043716378 0.1048040831 -0.3078334250
O 6.2852593738 6.2731225571 4.1836236292 0.8226653539 -0.1946109679 -0.6018368389
O 2.1156415481 8.3346237301 2.0949542383 -0.2031990587 -0.2345053303 0.3093027048
O 6.2282352711 8.3135683651 2.0553757191 -0.1666297037 -0.2424298895 0.0088345507
O 2.1119276384 4.1664072250 2.0835982916 0.0777091733 0.0802079162 0.0963229358
O 6.2552849630 4.1932053442 2.0773812409 -0.0775890580 0.0216312468 -0.0693594118
O 2.0822879895 8.3184393033 6.2823465048 -0.1115563466 -0.0997000440 0.0497429932
O 6.2797213898 8.3377645981 6.2682289661 0.0502224619 -0.2818061048 -0.1406109846
O 2.1031533687 4.1585986521 6.2429241054 0.0259988105 -0.1505410771 0.0006253895
O 6.2658145547 4.1535730111 6.2395547495 -0.2349596393 0.0525896884 0.2929240863
O 8.3114444628 2.0720368054 2.0592021657 -0.3814846334 0.3850534206 -0.2009267259
O 4.1528452446 2.0930663808 2.1152420172 0.2167717093 0.3262787533 0.1639065095
O 8.3138361325 6.2313884252 2.1033672725 -0.3261590711 0.0210320126 0.0110209661
O 4.1549500064 6.2766137631 2.1009216196 0.0237311480 -0.2215949613 0.0671114189
O 8.3242959066 2.1153843724 6.2283252835 0.1104468830 0.2613260154 -0.0553461719
O 4.1687153157 2.1088629077 6.2300674281 -0.3170080751 0.2414549989 -0.0246294281
O 8.3144175503 6.2754038618 6.2733228046 -0.0646860181 0.1524215688 0.0267574460
O 4.1573756279 6.2342744945 6.2387285887 -0.1853643723 0.0773771580 0.0954901755
Ti 2.0628804499 2.0608243042 2.0731254490 0.1726246262 -0.0891732219 0.2049337794
Ti 6.2773595348 2.0625919905 2.1027653899 -0.1068688207 -0.1738808330 -0.1152843262
Ti 2.0769390820 6.2455690389 2.0693364476 0.1531382103 0.2516017972 -0.2478611048
Ti 6.2768021854 6.2834215367 2.0584705521 -0.3374335769 -0.0620620977 -0.1552336436
Ti 2.0969985016 2.0780238073 6.2311498711 0.0898511403 -0.2466634999 0.0668361053
Ti 6.2440976480 2.0703297862 6.2369226944 0.0204286741 -0.2620638025 0.0527070185
Ti 2.1106456039 6.2326240928 6.2726698600 -0.0293995272 -0.1668044890 0.0712492299
Ti 6.2350854538 6.2591723724 6.2653301709 -0.0518043916 0.1189616750 0.1921588946
40
Lattice="8.3398939938 0 0 0 8.3398939938 0 0 0 8.3398939938" Properties=species:S:1:pos:R:3:force:R:3 energy=-29829.4329529 frame_id=supp_008 structure_id=extxyz total_charge=0 stress="-0.110124568244 0.000214309024057 0.000198915354735 0.000214309024057 -0.110299935514 -0.000259072486199 0.000198915354735 -0.000259072486199 -0.109145346114" phase_label=cubic
Ba 0.0265678176 8.3343562194 0.0377019475 0.2028086675 0.3326929203 -0.3384168035
Ba 4.2105411326 8.2990468091 0.0121123914 -0.3838323449 0.4398094664 0.0966188155
Ba 8.3017503946 4.2133680667 8.3377211278 0.5055886925 -0.3913681484 -0.1319151421
Ba 4.1695736921 4.2173744126 8.2947064452 -0.3540788436 -0.4274871052 0.1186508810
Ba 8.3207938784 8.2865411709 4.1124219209 -0.1744391688 0.3298403378 0.4066282755
Ba 4.1978622624 8.3254753764 4.1645661381 0.1278586233 0.1274459608 -0.1017857263
Ba 8.3319660991 4.1690318126 4.1718887107 -0.2029705190 -0.1023536085 0.1204755463
Ba 4.1700113387 4.1734117446 4.1962937211 0.2050458937 -0.0861598668 -0.0448963110
O 2.0410000365 2.0851330790 8.3192242672 -0.0009611983 -0.1745152479 -0.9344500762
O 6.2861547914 2.0609503920 8.3272908869 0.2585683853 -0.0348185259 0.9004159710
O 2.0439573430 6.2167070496 8.2855775595 0.8910865999 -0.2677382899 0.1184350895
O 6.2362555017 6.2343176584 0.0589779705 -0.2731262333 -0.2936269897 0.6550113808
O 2.0861038766 2.1301132964 4.2084079142 -0.0021408140 -0.0497323062 0.9350930565
O 6.2967259958 2.1089976952 4.1393973982 0.1109610267 -0.4089551512 -0.6016742176
O 2.1308745281 6.2240160750 4.2131908164 0.0027629449 -0.9345654353 0.2703920501
O 6.2184333354 6.1976778950 4.1462614799 1.1947266694 -0.5377270768 -1.0954562466
O 2.1245047149 0.0379715064 2.0704947992 0.2088681193 -0.1262369281 0.2395562856
O 6.2117769103 0.0338991202 2.1374808584 -0.2895772311 0.1644992841 0.0219705088
O 2.0590598543 4.1349074485 2.0389028883 0.1703851383 0.3602070853 0.3494438418
O 6.2778345615 4.1986091527 2.0290635349 0.0402192884 0.4034246563 -0.2060093117
O 2.0787620983 0.0057591453 6.2488531609 -0.1379944859 -0.2152015172 -0.3130509763
O 6.2939037997 0.0382438295 6.2365118087 -0.2226502979 0.1315017891 0.4356891190
O 2.1510075649 4.2151818533 6.2949559831 -0.3155439455 0.1279026414 -1.0892597611
O 6.2241183709 4.2108465686 6.2530989038 0.0796392115 0.3883897205 0.3962656719
O 8.2955414415 2.1346658084 2.1183859663 -0.4843060716 0.0936518618 0.2695986508
O 4.1751441922 2.0458953930 2.1448533576 0.3715040091 -0.6048930789 -0.4810801958
O 8.3186649812 6.2346223189 2.1337681119 0.1797182401 0.8552429225 0.4073706644
O 4.1528719600 6.3143819057 2.1016104168 -0.2923840414 -0.2271385194 0.0023033478
O 0.0038242150 2.0660867192 6.2699127573 0.1010929566 0.2881959924 -0.1112505910
O 4.1634591536 2.1295162017 6.2313807536 -0.3555810323 -0.3528885657 0.1792487586
O 8.3005386030 6.1999467366 6.2196080994 -0.3447247599 0.2445174439 -0.3305297366
O 4.1274994286 6.2075802157 6.2294662265 0.0737432563 0.0749717570 0.2610999825
Ti 2.0692371090 2.0642860350 2.1361879163 0.4634717797 -0.3427584955 -0.1520270756
Ti 6.2228713681 2.1347955035 2.0324852597 0.0243026425 0.3968525653 -0.3334735229
Ti 2.0969119097 6.1998557616 2.1310897689 0.1393149527 0.3015529506 -0.2240262620
Ti 6.2984148950 6.2834371258 2.0399723306 -0.8732210161 -0.3759040702 -0.2234817845
Ti 2.0743387757 2.0370493355 6.2080126879 -0.1123909398 0.2670207154 -0.1631724872
Ti 6.2630756383 2.0954667325 6.2701963536 0.3067989970 -0.2886277684 0.1118349968
Ti 2.1578469731 6.2423951553 6.2709226076 -1.0552133605 0.3619096828 0.2070474866
Ti 6.2678873210 6.2559615498 6.2648186228 0.2166702095 0.5530669416 0.3728058473
40
Lattice="8.0564995377 0 0 0 8.0564995377 0 0 0 8.0564995377" Properties=species:S:1:pos:R:3:force:R:3 energy=-29832.7108803 frame_id=supp_009 structure_id=extxyz total_charge=0 stress="-0.024538606634 0.00067823931066 0.000818088029675 0.00067823931066 -0.0219338359928 -0.000455488752871 0.000818088029675 -0.000455488752871 -0.0256010871484" phase_label=cubic
Ba 0.0464776649 0.0547215117 8.0378869046 -0.7152089102 -0.1015310513 0.2218578803
Ba 4.0827383524 0.0857768159 0.0377084526 -0.0197142502 -1.2136755086 0.1221942411
Ba 8.0499146954 3.9386326451 7.9932073522 0.1719712400 0.4022306222 0.2764941614
Ba 4.1124958067 3.9392686998 0.0952001403 -0.8018950553 1.1513616346 -0.7234281001
Ba 0.0348895250 0.0481743101 4.0535390828 -0.3299714969 -0.2499768431 -0.3333155518
Ba 4.0353467998 7.9776242238 4.0841637654 -0.0848830610 -0.0049374124 -0.7669148149
Ba 0.0798211558 3.9421549722 3.9858126743 -0.3803898113 0.5913715426 0.3139336856
Ba 4.0114751410 4.0204500494 4.0011604736 -0.2520571211 0.3530696960 0.2923170136
O 2.1180613347 2.0430888989 8.0129958691 -0.6673564855 1.8593525163 1.3226493965
O 6.0446463615 2.0317994417 0.0820605796 1.2185520798 -1.4193144315 0.8501463387
O 2.0576021835 6.0386067752 7.9880969475 0.0209306264 -1.6464692799 1.3385400601
O 5.9700529968 6.0926260476 0.0950621575 -0.1878116933 0.6691709953 0.6403847674
O 2.0194443100 2.0958881654 4.0389367341 -1.7312389911 0.8672430961 -1.2131604286
O 6.0571802681 2.0254981942 3.9460292010 1.7267712027 1.0909037721 -0.6911268645
O 2.0098088492 6.0269584623 4.0395102532 0.9093793540 -1.3166418209 -1.4314394626
O 6.0211549817 6.0315390196 4.0069605015 -0.4955127628 -1.2233441992 -0.6363150435
O 1.9637793858 7.9682254421 2.0082108959 -0.2727587622 -0.4724064316 0.8720334857
O 6.0387951683 0.0740414045 2.0085380872 -0.3143702534 -0.0377389284 -1.8279737731
O 1.9418857698 4.0028081340 2.0125785027 -0.3668418602 0.3301123249 0.7163997348
O 6.0746081617 4.0150321214 1.9532820191 0.4954957349 -0.1345609779 -1.1226097686
O 2.0496353644 0.0765514269 5.9557643551 0.2547784845 -0.8564040253 -0.9609797121
O 5.9759965046 0.0664489812 6.0893248370 -0.3046942012 0.0211674737 1.7723208080
O 1.9991558639 4.0496358000 6.0056216390 -0.0413206615 0.2805968427 0.3582253326
O 6.0088462501 4.0164478843 6.0196610184 0.1839135684 0.2542782885 0.4903425985
O 7.9991877586 2.0555998887 2.0044198297 0.4210771149 1.8888762946 -0.3202829017
O 4.0738881569 1.9393419017 1.9906715969 0.0745183130 -0.7852566587 -0.0285531335
O 0.0849201331 6.0971287552 2.0836894646 0.6745001369 -1.1361045558 -0.5885418950
O 3.9971158626 6.0121164700 2.0745825749 -0.2958518433 1.1191598749 0.2974319784
O 0.0207347266 2.0837193974 6.0982400024 -0.3970131255 -0.2708083078 0.6758545741
O 4.0009703520 1.9429803949 5.9846389234 0.4783745114 -0.6085261222 -0.1056425344
O 8.0279984751 6.0163883972 6.0773198824 0.3471074439 0.6112752153 0.4452308057
O 3.9932873577 6.0918189855 6.0552720057 -0.3069702063 0.0297310138 0.4485737351
Ti 2.0309272068 1.9893199937 1.9766424035 1.6746127856 -0.5965981609 -0.3162471719
Ti 5.9975306957 2.0215084616 1.9930260772 -1.5859431233 0.4828808312 0.1450152540
Ti 1.9450506139 6.1303102990 1.9243522126 -0.7244754422 -0.2672314824 -0.7029425675
Ti 5.9896921106 5.9724693372 2.0248551627 0.8699420146 0.0141312133 -0.4549183654
Ti 2.1226804342 1.9187951789 6.0841607744 -0.6166333861 -0.7477546372 -0.1423915836
Ti 5.9633835748 2.0012593859 6.0257151813 1.1045803021 0.5221103746 0.3864223704
Ti 1.9801833048 5.9814131973 6.0800383242 -0.6819451608 0.6284309428 0.2177332448
Ti 6.0421275581 6.1008222074 6.1010538944 0.9483527519 -0.0781737302 0.1626822063
40
Lattice="8.1374693823 0 0 0 8.1374693823 0 0 0 8.1374693823" Properties=species:S:1:pos:R:3:force:R:3 energy=-29831.9242064 frame_id=supp_010 structure_id=extxyz total_charge=0 stress="-0.0540886849274 0.000684168230293 -0.000148605088445 0.000684168230293 -0.049324806713 -0.00130065055998 -0.000148605088445 -0.00130065055998 -0.0545588488733" phase_label=cubic
Ba 0.0145289638 0.0891549473 0.0694859852 0.3641107208 -1.1965779886 -0.4126840158
Ba 4.1501309839 8.0983327818 8.0962243720 -0.8665620339 0.2623588374 0.0771194491
Ba 0.0593569283 4.0264509759 0.0691484823 -0.6479858888 1.0250860167 -0.0791641552
Ba 4.0382443680 4.0950342981 0.0456964129 0.5412284156 -0.2437792375 -0.4709627234
Ba 0.0598465064 0.0463425663 4.1127098359 -0.0897977373 -0.9316808354 -0.2132171348
Ba 4.0827380966 8.0924682230 4.0334491029 -0.1855475180 0.3471057076 0.2535268214
Ba 8.0317002748 4.0543398798 4.1841711082 0.2284081070 0.8714252038 -0.8075134775
Ba 4.0181914686 4.0903747961 4.0750698264 0.5570182541 -0.2326169522 0.0611002679
O 1.9783259949 2.0832534225 8.0820658200 -0.1933289506 0.3325410934 0.7951365403
O 6.0189589135 1.9739426452 8.0877698465 0.4319110221 -0.3787815388 0.3501662506
O 1.9925145513 6.0477901874 0.1106239734 -2.2442562401 -0.8797909026 -0.5930080972
O 6.0421268003 6.0727930876 0.0498961656 1.9258668144 -0.7225856540 0.5066810211
O 2.0369001264 2.0028044546 4.0597030900 0.6795723480 -1.2698133198 -0.3306555887
O 6.1609713900 1.9593885768 4.1507640731 -0.4731064903 1.2805099983 -0.2665245456
O 2.0382510795 6.0386234761 4.1197723755 -1.6074865644 1.8605140493 -0.5728308101
O 6.1077106904 6.0966175326 4.0408726642 2.0070929245 -2.5961878401 -0.7008728289
O 2.1162583829 8.1191676550 1.9588618785 0.5028969416 0.0675232231 0.5790048631
O 6.1497331569 0.0476741794 2.0161002672 0.4054946389 0.1573998950 0.0565812009
O 1.9792786785 4.1386386512 2.1262410651 0.5325006644 -0.0232756572 -0.7709171932
O 6.1874074839 4.1292483576 1.9680163502 -0.0480396659 0.6949644967 0.0100409466
O 1.9559955661 8.0715529582 6.1368611651 -0.0694481508 0.0997873823 0.3514966178
O 6.1449339913 8.1107346778 6.0295332298 -0.3610364749 0.3068774125 -1.3790160118
O 2.0144990128 4.1486115056 6.0224297657 0.4694265542 0.6495657651 0.4425882507
O 6.0816974853 4.1806590955 6.0422732547 -0.6365691301 0.4526168170 -0.2634823144
O 0.0155117395 2.0568202831 2.0657960582 -0.0413411128 1.1732556025 0.3674024186
O 4.0672200876 2.0461594026 2.1084749412 -0.5018261550 0.8079088223 0.0782786020
O 0.0409025416 6.0887973549 2.1028491534 0.6827518768 -1.3709048530 -0.4721446977
O 4.0333159297 6.0461174470 1.9905131501 -0.7088698200 -0.6734154126 0.3671300262
O 8.1139709320 2.0626349746 6.0747322499 0.7913501759 0.6066887180 -0.0061372657
O 4.0654365994 2.0467650232 6.0243476320 -0.5784190844 0.9645272715 0.6051723558
O 8.0815491952 6.1967981857 6.0626335913 0.0843466370 -1.4164954040 0.6304637335
O 4.1266212142 6.0398463067 6.0337674141 0.0177963857 -0.9708948596 0.5363776324
Ti 2.0930155401 2.0143268104 1.9870864778 -0.4315980031 -0.2282463950 -0.2928965039
Ti 6.1348289706 1.9783179641 2.1054077802 -0.0925628952 0.1044693973 -0.4529073462
Ti 2.1003850274 6.1148460001 2.0369551873 -0.3737094465 0.5526278793 -0.3007057148
Ti 6.0447863866 6.0535786042 1.9876342250 0.7917028957 0.4132831102 0.4290006130
Ti 2.0230604784 2.1090090830 6.0559568815 0.2620017535 -0.0371413855 0.4342171442
Ti 6.1316734459 1.9681491471 6.1459644761 -0.6261938918 -0.1155387356 0.4052844880
Ti 2.0567090401 6.0391780854 6.0662467688 0.5580403724 -0.5212842101 0.4296189245
Ti 6.0226302412 6.2115134247 6.0758121665 -1.0558322488 0.7779744822 0.6192522571
40
Lattice="8.09698446 0 0 0 8.09698446 0 0 0 8.09698446" Properties=species:S:1:pos:R:3:force:R:3 energy=-29833.9664508 frame_id=supp_011 structure_id=extxyz total_charge=0 stress="-0.0494881790142 -1.91887772843e-05 -1.95195295802e-05 -1.91887772843e-05 -0.0494606558905 -2.71734587037e-05 -1.95195295802e-05 -2.71734587037e-05 -0.0496058118866" phase_label=cubic
Ba 8.0926554683 0.0017310481 8.0797537241 0.0477101526 -0.0967646335 0.1680633238
Ba 4.0552729816 0.0153378865 8.0902933669 -0.0503276008 -0.1845750702 0.1584227040
Ba 0.0093889939 4.0332601265 0.0048763287 -0.0525218518 0.1618183528 -0.1082280561
Ba 4.0461521859 4.0589183009 0.0206929571 0.0385095752 0.0496055009 -0.1535751662
Ba 0.0138020393 0.0144652719 4.0536425116 -0.1222196740 -0.1295460596 -0.1225818779
Ba 4.0366646775 8.0936489392 4.0484343651 0.1177462726 -0.0172489666 -0.1260513101
Ba 8.0848561705 4.0500807777 4.0575479474 0.0639594704 0.0278996800 0.0192541161
Ba 4.0328170315 4.0647272817 4.0523767299 0.1138923354 -0.0586386191 0.0219498173
O 2.0311617955 2.0181002462 0.0066086166 0.0767951531 0.0127692790 0.0079549936
O 6.0918592513 2.0181817042 8.0834004802 0.1363244734 -0.2663103227 0.2050120969
O 2.0082002336 6.0680823193 0.0163661055 0.0612268704 0.2182575406 -0.0037195702
O 6.0612922145 6.0648467216 0.0062543652 0.0358234948 0.3765713597 -0.0669545142
O 2.0098995755 2.0100263537 4.0352331371 -0.0841020372 0.0507947952 0.0099834512
O 6.0607622478 2.0179754152 4.0658168380 0.1476329969 0.2344758906 -0.2781043095
O 2.0280649496 6.0616061475 4.0397220499 -0.0231526834 -0.0740182445 -0.0164140374
O 6.0881314197 6.0633505551 4.0562251276 0.2071659340 -0.3423604344 -0.0124388575
O 2.0386863740 8.0805342000 2.0120415728 -0.0959317786 0.0556702075 -0.0318627055
O 6.0671458966 8.0852271491 2.0105963320 -0.1676918867 0.0602957234 0.0665815719
O 2.0301874768 4.0421393040 2.0318322763 0.0945938757 -0.0481218785 -0.1673255930
O 6.0854973545 4.0522190587 2.0347041917 0.0473523791 0.0251958616 -0.0558788191
O 2.0203554098 8.0913593445 6.0853665771 0.1094657542 0.0307907310 0.1604358640
O 6.0601755794 8.0901783344 6.0557119386 -0.0124875544 0.0288497940 -0.1089994412
O 2.0397397438 4.0587042126 6.0689301155 -0.0564384287 0.0845422488 0.1808475616
O 6.0917007934 4.0686537397 6.0658689739 -0.1356746670 0.0709235149 -0.0579538485
O 8.0799640660 2.0337054866 2.0184222992 -0.1066906742 0.1782110789 0.0635431686
O 4.0446386993 2.0412323855 2.0185945144 0.0218050342 0.2309063865 0.0918437050
O 8.0933503249 6.0735351680 2.0145235522 -0.0482657238 -0.1628325157 -0.0629214804
O 4.0462525691 6.0803302861 2.0425150484 -0.0988625689 -0.2013557067 -0.0747377620
O 0.0024238752 2.0159101977 6.0559862833 0.0347602986 0.0936267337 -0.0813033988
O 4.0318571350 2.0299800820 6.0817813940 0.0141382565 0.1669821764 0.1353258415
O 8.0912139970 6.0687718798 6.0650566523 -0.1095039997 -0.1828227919 0.0432689345
O 4.0345051878 6.0741658547 6.0892404844 -0.1862850422 -0.2442344211 0.0869541533
Ti 2.0347497978 2.0312404776 2.0149176439 -0.0559774199 -0.0618893236 0.0117558890
Ti 6.0801223324 2.0372759283 2.0152370825 0.0207062390 -0.0518991043 -0.0025541623
Ti 2.0296503596 6.0731125646 2.0218969891 -0.0802804188 -0.0453573896 0.0797791585
Ti 6.0881478233 6.0605698204 2.0303967679 -0.0357768658 -0.1436194370 -0.0794914597
Ti 2.0243383519 2.0232830981 6.0646375484 0.0750062720 0.0314637675 0.1150225776
Ti 6.0569168671 2.0142029542 6.0758484559 0.1173145168 -0.0297344708 -0.0292892124
Ti 2.0360001216 6.0739322943 6.0773580902 0.0093463879 0.1083002480 0.0961001074
Ti 6.0780722877 6.0820707438 6.0739953046 -0.0690848672 0.0433785187 -0.0817134538
40
Lattice="8.09698446 0 0 0 8.09698446 0 0 0 8.09698446" Properties=species:S:1:pos:R:3:force:R:3 energy=-29833.7652281 frame_id=supp_012 structure_id=extxyz total_charge=0 stress="-0.0480302021322 -4.28514197143e-05 5.66593449646e-05 -4.28514197143e-05 -0.0480484745859 0.000177093571569 5.66593449646e-05 0.000177093571569 -0.0479403123004" phase_label=cubic
Ba 8.0676089616 0.0253993516 8.0677886297 0.3187924657 -0.3453132631 0.2347750485
Ba 4.0425934959 0.0034070614 8.0701309220 -0.1128106258 -0.0637352860 0.1007552915
Ba 8.0683894848 4.0542829771 0.0365791440 0.3825999041 0.1229122362 -0.3591074639
Ba 4.0815281115 4.0209183077 0.0359756276 -0.3784695553 0.1449123857 -0.4342605988
Ba 8.0639213733 0.0208449293 4.0696087955 0.2459729731 -0.2105132871 -0.1983574606
Ba 4.0614101753 0.0224461146 4.0177131548 -0.1311414443 -0.0302941537 0.1660939319
Ba 0.0274721597 4.0877428373 4.0804565356 -0.1238570722 -0.1522366163 -0.0704349370
Ba 4.0794684457 4.0776165799 4.0204838756 -0.1751896030 -0.2828233871 0.3591101524
O 1.9864422128 2.0176302134 0.0228917160 0.2891746741 0.3385795838 -0.7604303059
O 6.0820558305 1.9951219569 8.0931024044 0.3046806726 -0.3994413798 0.1389650617
O 2.0403086980 6.0644963406 8.0543666417 -0.8585955303 0.0980803250 -0.5357475234
O 6.0543215199 6.0368149141 8.0764640449 0.7555935163 0.3229958722 -0.4295281735
O 2.0481611798 2.0474400259 4.0705479360 -0.0804355739 -0.1899109379 0.3049043182
O 6.0577635479 2.0355497388 4.0297134080 0.1577274928 0.4011572601 0.1249973077
O 2.0162931385 6.0869512508 4.0650760320 -0.3654725660 -0.1810195501 0.6924373374
O 6.1032125323 6.0356604467 4.0638528865 -0.0047889884 -0.6222579971 0.5612383616
O 1.9877488745 8.0596478569 2.0071938819 0.2382105035 0.0401999200 0.1695159608
O 6.0657938079 0.0024489851 2.0097153133 -0.2657110651 0.2606456444 0.1965510536
O 2.0199600895 4.0390539478 1.9962783836 0.1941983953 0.0422450607 0.5584719841
O 6.0993453692 4.0738681313 2.0172048786 -0.0061060311 0.2849655721 0.3399330641
O 2.0406709502 0.0239993604 6.0934901865 -0.3041946505 -0.1887388263 -0.0240852460
O 6.0688243436 0.0266578748 6.1084692588 0.0665567751 -0.0341465190 -0.1507777839
O 1.9999686983 4.0733464632 6.0590639478 0.1943482705 -0.0177782806 -0.2157713194
O 6.0850812392 4.0500787255 6.1066129400 -0.1601237318 0.3263372057 -0.2326843266
O 8.0638753993 1.9927448047 2.0253362366 0.3012239233 0.2265936631 0.2389959677
O 4.0071731081 2.0546171401 2.0437355243 -0.1766007105 -0.3096524556 0.1889075508
O 0.0140997331 6.0585578840 2.0209936443 -0.0437547578 -0.0801522997 0.3108040914
O 4.0388114531 6.0484485439 2.0373774754 -0.2663449417 -0.3291330365 0.0584486278
O 8.0733629979 1.9939773964 6.0961156123 -0.0375371043 0.3653786685 -0.2990739591
O 4.0605713418 1.9945275750 6.0358343297 0.0372209296 -0.1722791956 -0.3734469891
O 0.0338984086 6.0683391967 6.1046658427 0.3364643777 -0.1797713480 -0.0400247517
O 4.0784139602 6.1074242043 6.0670337472 -0.1101245410 0.1240907147 -0.2556925273
Ti 2.0228901650 2.0188957280 2.0242912286 -0.1039672343 0.2176381583 0.1975874248
Ti 6.0962173425 2.0575658563 2.0331529433 0.0556715518 -0.1867119125 -0.0992199742
Ti 2.0392943054 6.0795465228 2.0162992200 -0.1552674851 0.0581287824 0.0675032898
Ti 6.0404059637 6.0767852931 2.0387920304 0.3164423536 0.1113219087 0.0460787461
Ti 2.0247635936 2.0054652189 6.0324902220 0.2146733974 0.1574499959 -0.3288935481
Ti 6.0595958301 1.9891458306 6.0828523004 -0.1234298358 0.2383038133 0.2530456871
Ti 2.0551218739 6.0527383247 6.0379038405 -0.4410354524 0.2197202812 -0.3012733233
Ti 6.0798339441 6.0685319095 6.0670189178 0.0154063240 -0.1257473200 -0.2003100473
40
Lattice="8.09698446 0 0 0 8.09698446 0 0 0 8.09698446" Properties=species:S:1:pos:R:3:force:R:3 energy=-29833.4648171 frame_id=supp_013 structure_id=extxyz total_charge=0 stress="-0.0453361557691 6.37290019922e-05 -1.00475484777e-05 6.37290019922e-05 -0.0465650408332 -1.60406931762e-05 -1.00475484777e-05 -1.60406931762e-05 -0.0459101990313" phase_label=cubic
Ba 8.0682465312 0.0453730657 0.0361739870 0.2234530185 -0.0857940022 -0.1195955253
Ba 4.0427784298 8.0660963603 8.0781703017 -0.0162904364 0.5245813147 -0.2050380661
Ba 8.0695567083 4.0404338162 8.0711138131 0.4140492791 -0.0851730918 0.6431100710
Ba 4.0034032893 4.0368466725 8.0793729116 0.0543899207 -0.2494078130 0.2119759763
Ba 8.0925289583 8.0582063041 4.0763328699 0.0397926898 0.0411904015 -0.1716809510
Ba 4.0109183718 0.0251907961 4.0486857052 0.2278861368 -0.2783098589 0.2972972392
Ba 8.0498844819 3.9922569023 4.0406938915 0.6140210839 0.4856650896 -0.3960079690
Ba 4.0302484822 3.9975052887 4.0648915543 -0.1942295689 0.3987927778 -0.1869897158
O 2.0218073611 2.0513354833 8.0867061144 0.1632754325 0.8998074290 0.1215604250
O 6.0705538262 2.0301016911 0.0128956338 -0.5505630201 -0.3588315721 -1.0160051258
O 2.0691477401 6.0982012198 0.0287512382 -0.7894732428 -0.7753468370 -0.0637952055
O 6.1108652252 6.0979656642 0.0096689034 0.9027230412 0.1946710759 0.9774680470
O 2.0307989336 2.0229714894 4.0426387831 0.3904719654 -0.6560052437 0.1412148469
O 6.1265167958 2.0001530941 4.0919985324 -0.6065328285 -0.7837329589 0.6323978293
O 1.9833057547 6.0934088452 4.0703010522 0.9440817372 0.7755497117 -0.5175156777
O 6.0973220741 6.0520233809 4.0011109460 -1.0147611157 0.7417492532 -0.5623275702
O 2.0495747219 0.0171169500 2.0667283943 0.0592988987 -0.2459688070 -0.4517215037
O 6.0375798150 0.0384555873 2.0155251681 0.0549506912 0.1175535905 0.0180153471
O 1.9814390656 4.0145031624 2.0284365168 -0.4815459632 -0.1382062099 -0.1024766374
O 6.0590536138 4.0379329168 2.0566849995 -0.1092555434 -0.3256998341 -0.2549934373
O 2.0801843111 8.0955038345 6.0365347363 -0.2202547758 -0.0226753554 -0.4155409794
O 6.0745304301 0.0173394565 6.1057685692 -0.1602272837 0.1842745861 -0.3099938023
O 2.0718713133 4.0270927362 6.0535169306 0.3181441778 -0.2543484847 0.3810589635
O 6.1093344141 3.9955446158 6.1014544308 -0.2317145709 0.0319008703 0.4705262575
O 0.0463719528 2.0693132495 1.9656522710 -0.2457364296 -0.2078458229 -0.2338003875
O 4.0283884595 2.0215648500 2.0363167909 0.2142530638 -0.4300830396 0.0927623900
O 0.0055336710 6.0793909946 2.0236961321 0.3940693080 0.6871036658 0.0349064507
O 4.0001947838 6.0867236840 1.9654603609 -0.0789398909 -0.0711118955 -0.1925286020
O 0.0600678438 2.0743524697 6.0628081041 -0.6463779043 -0.3876856359 0.3073776334
O 4.0099383668 2.0219427221 6.0216504060 0.3624480548 -0.1986776775 -0.1427856907
O 0.0050033362 6.0351857931 6.0517537087 -0.2757521091 0.6213842466 0.1524294145
O 4.0550923035 6.1170391054 6.1075683568 -0.2090842728 0.7887354884 -0.1269082029
Ti 1.9979524612 1.9728357475 2.0782808490 -0.7322578268 -0.4379615375 0.4227988042
Ti 6.0628931246 2.0647069779 2.0559880287 0.7444392650 0.1381730060 0.1194712355
Ti 2.0787138268 6.0856493076 1.9821965445 -0.5847084573 0.1607251431 -0.2211637623
Ti 6.0638337936 6.0939128861 1.9808222097 0.4744908832 -0.1275036610 0.3170079086
Ti 1.9870524809 2.0619186733 6.1179147769 -0.4987442097 -0.2819712912 0.0770468253
Ti 6.0682680935 2.0313069885 6.0463506506 0.9756736942 0.1728091504 0.1900901327
Ti 1.9989656499 6.0530660241 6.0405265917 -0.3345288285 0.0550693522 0.2829898330
Ti 6.1299684036 6.0222359329 6.0985474350 0.4090659368 -0.6173955231 -0.2006368189
40
Lattice="8.09698446 0 0 0 8.09698446 0 0 0 8.09698446" Properties=species:S:1:pos:R:3:force:R:3 energy=-29833.1238691 frame_id=supp_014 structure_id=extxyz total_charge=0 stress="-0.0420935819568 -0.000507335621648 0.000210607461337 -0.000507335621648 -0.0445593736572 -0.000818095307649 0.000210607461337 -0.000818095307649 -0.0429694581058" phase_label=cubic
Ba 0.0268808771 8.0523026255 8.0923207290 -0.1485316980 0.1895601160 -0.2663965891
Ba 4.0593286574 0.0244750362 8.0602925708 -0.1000961728 0.2502065698 0.4533709260
Ba 0.0585141456 4.0053361230 0.0488718139 -0.2557653843 0.3558209993 -0.4501441047
Ba 4.0885108679 4.0587306795 8.0585012671 -0.3523668719 -0.4064378964 0.7298545410
Ba 0.0354200429 8.0287393399 4.0429155979 -0.4100229778 0.4028257183 0.1836381947
Ba 4.0158582825 8.0503679236 4.0831519110 0.3547167446 0.7000077212 -0.7350118433
Ba 8.0968729240 4.1248599529 4.0424489416 -0.1106704515 -0.4167112308 0.0987042098
Ba 4.0140125687 4.0456175213 4.1223733668 0.2080787927 -0.2736754290 -1.0770775378
O 2.0194987767 2.0847250218 0.0612857250 0.8614710322 0.1616801397 -1.0377979964
O 6.1387387463 1.9807180549 8.0208837610 -0.9426310367 -0.2695044610 -0.1159162077
O 2.0679417131 6.1124265610 0.0450908439 1.0491029461 -0.2024648558 -1.0325888273
O 6.0209410093 6.0073099210 0.0707581467 -0.5793229073 -0.8268499254 0.1120581800
O 2.0238888797 1.9999981644 4.1085217661 0.3554535229 0.1194033005 0.2242319899
O 6.0024130590 2.0780723307 4.0185266275 0.1017374021 -0.5961931797 0.8005396028
O 2.0026047365 6.1008378878 4.0407187775 -1.9774673859 0.4531971860 0.7029913300
O 6.0434478386 6.0461848665 4.0293719650 1.6658527039 0.7307147858 -0.5118060113
O 1.9490523275 0.0235468684 2.0015778893 -0.2365017375 -0.3784888602 0.3375244392
O 6.1322454836 0.0447164780 2.0965558171 -0.2163111078 0.2797209068 0.2211008212
O 2.0487704144 4.0574441814 2.0747344005 -0.3188980287 -0.3377279458 0.1548012303
O 6.0462451399 4.1104535725 2.0069760628 0.2416325315 0.6321506489 -0.9443037295
O 1.9914932768 8.0293717955 6.1266595474 -0.0572851188 0.0800401629 -0.3175044061
O 6.1359497802 0.0051321453 6.0966671681 0.3685225948 -0.0853761049 0.6846952081
O 2.0489429075 4.0290717664 6.1444203161 0.3009435578 -0.1451276732 0.5558744543
O 6.0970192418 4.0142743124 6.1067753724 -0.1319504292 0.0650469943 1.3766487573
O 8.0373380491 2.0747632324 2.0261400142 0.2450983218 -0.0265038284 0.4256297289
O 4.1158101426 2.0323510301 1.9799685120 -0.1570478932 -0.2172279628 -0.3607933055
O 0.0021297406 6.0056716900 2.0940293866 -0.2903837888 -0.7930966329 0.1338009024
O 3.9935533349 6.0257022493 1.9795804548 0.2474032929 0.0554922907 0.1406408885
O 0.0063601593 2.0052378985 6.0294365223 0.2264534271 0.3840949213 -0.2505038024
O 3.9863849943 1.9962394955 6.0858353370 -0.5528649042 -0.9445743948 -0.3753054881
O 0.0518120245 6.0710259278 6.0386344820 -0.0225342239 0.0944314792 -0.5126772519
O 3.9910693638 6.1601083949 5.9909130305 -0.3765978325 0.7615724404 -0.2938358250
Ti 2.0325467135 2.0773702210 2.0368117842 0.6944250312 0.0284821045 0.2343657031
Ti 6.1417143516 1.9876638676 2.0239870622 -0.9842004884 -0.0513615462 0.2007744697
Ti 1.9965504496 6.1253237746 2.0006339120 -0.0899138606 0.4030116513 -0.4775876353
Ti 6.0771960425 6.0360338193 1.9769848936 0.2275700538 0.6123829172 0.5510923664
Ti 1.9657295552 2.0342136981 6.0349518022 0.2012915485 0.1541790971 -0.0254007822
Ti 6.0695873615 2.0567532150 6.0103096059 0.5302839799 0.0056769284 -0.1514644643
Ti 2.0956286258 6.0766620389 5.9962510990 -0.9637220870 -0.2767492511 0.1891744358
Ti 6.0177176743 6.0598555173 6.0348209168 1.3950489028 -0.6716279013 0.4246034284
40
Lattice="8.09698446 0 0 0 8.09698446 0 0 0 8.09698446" Properties=species:S:1:pos:R:3:force:R:3 energy=-29833.9265186 frame_id=supp_015 structure_id=extxyz total_charge=0 stress="-0.0496172040741 -2.73767939622e-05 -3.07729482216e-05 -2.73767939622e-05 -0.0494394901532 -2.97640452295e-05 -3.07729482216e-05 -2.97640452295e-05 -0.0493831824675" phase_label=cubic
Ba 8.0947397513 0.0145448758 8.0824802555 0.1177105239 -0.0563770877 0.1536287631
Ba 4.0589829538 8.0840699149 8.0908000523 -0.1542227639 0.0553776164 -0.0581862973
Ba 8.0934256901 4.0516181223 0.0169162589 0.2388193099 -0.0273370395 -0.0778498733
Ba 4.0565657853 4.0492992960 0.0160597332 -0.2581139586 0.0348388111 -0.1427130111
Ba 0.0007593874 0.0022361727 4.0632647881 -0.2379895536 -0.0133947537 -0.1785059655
Ba 4.0435663823 0.0034101452 4.0271626812 0.2552848633 -0.1249937105 0.1832771504
Ba 0.0189196398 4.0553315529 4.0475444086 -0.2637427298 -0.0050273095 -0.0379078471
Ba 4.0354306898 4.0401387483 4.0612854446 0.2303614745 0.1900263166 -0.0349953228
O 2.0344303971 2.0089184282 0.0143210165 -0.3255101484 -0.0990002144 -0.6451107900
O 6.0907471412 2.0278385230 0.0147487075 0.2202921287 -0.2349611667 0.3102513262
O 2.0203557068 6.0578650628 8.0883808018 -0.1517877920 0.1033769265 -0.3061237348
O 6.0743216709 6.0665125122 8.0933189158 0.0509465472 0.3249427015 0.5752454644
O 2.0270885159 2.0219893508 4.0541704236 0.0413100943 -0.0410752957 0.4833434866
O 6.0712572055 2.0306246089 4.0607497950 -0.0094897208 -0.2093435763 -0.5500481778
O 2.0069392864 6.0912772018 4.0469140746 0.1432334304 0.0201078826 0.3597643253
O 6.0580389841 6.0586348602 4.0436590597 -0.3330099955 0.3024807816 -0.5013555736
O 2.0080980548 8.0811758796 2.0107388835 0.0045842725 0.1379237325 0.0753259656
O 6.0837340306 8.0960208201 2.0328303335 -0.1636766611 -0.0128319279 -0.1844935843
O 2.0131068290 4.0658942612 2.0214124814 0.0942482185 0.1148559506 0.0818763628
O 6.0662388833 4.0352642487 2.0055138510 0.0102234631 -0.0292511804 0.1097078770
O 2.0166060799 0.0039559841 6.0807521730 -0.0066668007 0.0450013785 -0.0528592315
O 6.0626522451 8.0845094932 6.0535415153 0.0139735752 0.0579503237 0.1243314756
O 2.0177228240 4.0582569609 6.0877408627 0.0932334863 -0.1045167800 0.1865239397
O 6.0742141599 4.0526495547 6.0621321676 0.1956386698 -0.0554519331 -0.1149600858
O 8.0955828851 2.0122900527 2.0069378100 0.1701473756 0.1846172338 0.1433851707
O 4.0597803559 2.0248468064 2.0331604929 -0.0891182839 -0.0619089087 -0.1358715577
O 0.0126906380 6.0685091701 2.0165791419 0.1241791750 -0.3215750796 0.1316372370
O 4.0540431528 6.0745594850 2.0351437795 0.0472842122 0.0994415525 0.0369025857
O 0.0053057264 2.0144390125 6.0765645537 0.0605906894 -0.1005854748 -0.1054773559
O 4.0405455213 2.0453048221 6.0817715061 0.0768205937 0.1622072542 0.2105048605
O 0.0005889135 6.0582466115 6.0891613537 0.0043406445 -0.2472545257 -0.2046156393
O 4.0663132826 6.0693946964 6.0739091562 0.0457258617 -0.2275476475 0.1846918723
Ti 2.0223612512 2.0274834698 2.0387770560 0.2536815102 0.1304878078 0.2027324092
Ti 6.0554683755 2.0334474982 2.0032269389 -0.1138353411 -0.0053008741 -0.0158755406
Ti 2.0346741119 6.0781120625 2.0209129494 -0.2675051885 -0.0550858547 0.0159964887
Ti 6.0836547419 6.0585227320 2.0050721363 -0.0688251164 -0.0376076192 -0.1225110867
Ti 2.0243343584 2.0428473390 6.0548722068 -0.0428416693 0.1283288705 0.0008005699
Ti 6.0730922023 2.0432161273 6.0825826370 0.0727309075 -0.0623835332 0.0031236149
Ti 2.0085473928 6.0881292940 6.0535139673 0.0707747263 0.0702607397 -0.1155016232
Ti 6.0777795365 6.0583034421 6.0910648293 -0.1498000300 -0.0294143869 0.0119113526
40
Lattice="8.09698446 0 0 0 8.09698446 0 0 0 8.09698446" Properties=species:S:1:pos:R:3:force:R:3 energy=-29833.7281322 frame_id=supp_016 structure_id=extxyz total_charge=0 stress="-0.0482452957301 2.2479002337e-05 2.62571270903e-05 2.2479002337e-05 -0.0481581067504 8.23872591816e-05 2.62571270903e-05 8.23872591816e-05 -0.0482612019437" phase_label=cubic
Ba 0.0305786107 8.0875052458 0.0365341742 -0.1298979298 -0.1002151604 -0.2755217704
Ba 4.0259507251 0.0299862379 0.0025571771 0.0455248403 -0.2826408482 -0.2356807822
Ba 8.0616626366 4.0193068454 8.0950015447 0.3239642185 0.2554666072 0.1454863856
Ba 4.0391937805 4.0762829276 8.0860587485 -0.1362087765 -0.0920943945 0.0058898106
Ba 0.0359269720 0.0373940436 4.0560117389 -0.2941772158 -0.3517335932 -0.0455120330
Ba 4.0771563904 8.0738968693 4.0330894172 -0.1257943347 0.1723693929 0.2609925144
Ba 8.0635437563 4.0288030571 4.0468100643 0.1159153436 0.1886103074 -0.1910438128
Ba 4.0413266011 4.0695556476 4.0140956007 0.0551389693 -0.1941984641 0.2040066996
O 2.0412370252 2.0280861712 0.0047472681 -0.2886569892 -0.2882926794 -0.0102649431
O 6.0417373577 2.0161817045 8.0810645258 -0.0786013232 0.1896802352 0.6708918437
O 2.0431623135 6.1102656515 8.0823522237 0.3348934990 0.4647051285 0.1466912523
O 6.0457652414 6.0393318655 0.0421668328 -0.1331579250 -0.2534734331 0.1204634471
O 2.0307470439 2.0207132377 4.0470761403 0.9263415737 0.0290553791 -0.1206661845
O 6.0385378245 2.0281345265 4.0394333557 -1.0091814422 -1.0603012370 -0.4895150457
O 2.0430714103 6.0486417398 4.0214234584 0.0513738478 0.0932942721 0.1392770526
O 6.0343378046 6.1036667643 4.0641961070 -0.2036326500 0.8576015315 -0.5417932359
O 2.0473326765 0.0159633255 1.9983516069 -0.1532362188 0.0566576144 -0.0216732112
O 6.0739345848 8.0749160506 2.0573971754 0.2870837617 0.1406791314 0.3072227517
O 2.0342293716 4.0204368717 2.0602479518 -0.3122398515 -0.4228252183 0.3847860444
O 6.1097129108 4.0753074974 2.0034831491 0.2360210767 0.2233595222 -0.3668646387
O 2.0462769985 8.0717331121 6.0977709669 -0.1237499413 -0.0126549392 0.4436205053
O 6.1024627236 8.0969690671 6.1118970263 0.3454974445 0.0990652383 -0.0504078788
O 2.0607164599 4.0429130630 6.0936539374 -0.1615463475 0.1090362885 -0.0490376871
O 6.0583800498 4.0783222147 6.1016556930 0.1750450547 -0.3171470904 0.3984616562
O 0.0289075948 2.0075175641 1.9879615604 -0.1085938840 -0.2000233701 0.1936799759
O 4.0566054187 2.0658424024 2.0082593962 -0.0226814078 0.7402606709 -0.3337689779
O 8.0707698307 6.1065029984 2.0346602937 -0.1655850683 0.3579120581 -0.3336258301
O 4.0374200208 6.1106973309 2.0127483706 -0.1541184272 -0.3070274870 0.1296604807
O 8.0913544778 2.0018191710 6.0863180070 -0.2468942404 0.5083055873 -0.2395007713
O 4.0635206556 2.0116583081 6.0862282069 0.0089590399 0.0137332246 -0.0368520090
O 0.0354825896 6.0410677088 6.0445998065 -0.2834087243 -0.1427582485 -0.1280921319
O 4.0257586829 6.0742416739 6.0956895946 0.2261334709 -0.2142104713 -0.0520044377
Ti 2.0208922353 2.0512391657 1.9928607617 -0.2038333436 0.0902040612 0.0795440485
Ti 6.0354277661 1.9926358155 1.9886299408 0.4728286731 -0.2006299866 -0.0408067574
Ti 1.9987017727 6.0679823673 2.0171898253 0.5282457628 -0.1770255578 -0.0756515007
Ti 6.0621153198 6.0767120483 2.0000972557 -0.0330047292 -0.3072223446 0.0218817349
Ti 2.0058316763 2.0040134516 6.0539978180 0.0723316950 0.3085051406 -0.0222845327
Ti 6.1012899280 2.0474778861 6.1028543904 -0.0534591045 0.1217558381 -0.0644467306
Ti 2.0161666940 6.0451757099 6.0651489921 -0.2802628410 -0.0161128706 0.1864892057
Ti 6.0624632676 6.0377763208 6.0853690960 0.4966244443 -0.0796698352 -0.1140305066
40
Lattice="8.09698446 0 0 0 8.09698446 0 0 0 8.09698446" Properties=species:S:1:pos:R:3:force:R:3 energy=-29833.3812566 frame_id=supp_017 structure_id=extxyz total_charge=0 stress="-0.0448197341394 -0.000208087576878 -0.000470627241278 -0.000208087576878 -0.0444960496202 -0.000213867833564 -0.000470627241278 -0.000213867833564 -0.046231567718" phase_label=cubic
Ba 0.0103587355 8.0693399957 0.0119954493 -0.2699669156 0.0918012559 -0.4315415474
Ba 4.0635819529 0.0401330930 8.0747529967 0.1518447856 -0.1676117162 0.2870703388
Ba 8.0457579557 3.9999487961 8.0668057126 0.5971739184 0.2470424277 0.1947511474
Ba 4.0720272377 4.0877773072 8.0462098159 -0.4592156310 -0.2488035700 0.8041205294
Ba 0.0048133673 8.0810587782 3.9999163631 -0.1063738502 0.2270273760 0.7170354888
Ba 3.9946150930 8.0590875584 4.0234952942 0.3865105150 0.3818117304 0.0272026453
Ba 8.0671897043 4.0002296708 4.0790266624 0.6526738525 0.1835092657 -0.0794200107
Ba 4.0210519418 4.0091771629 4.0969499927 -0.3146215498 -0.0140437712 -0.7354536083
O 2.0746050758 2.0620145465 0.0400078364 0.3279662533 0.5893911020 0.3082733011
O 6.0549727139 2.0240242846 0.0418187009 -1.1279192873 -0.1884434021 -1.1010866605
O 2.0802437168 6.1087375723 8.0878246657 1.3005606419 -1.4784394547 -0.6547802640
O 6.1222119746 6.0400650264 8.0529755463 -1.2166240942 -0.7727145807 -0.2800769759
O 1.9778948598 2.0491857615 4.0832243465 -0.3293281499 0.7426824472 -0.8364589926
O 6.0968380499 2.0788015160 4.0276694323 -0.4491010210 -1.5493491399 0.7602559429
O 1.9857044828 6.0277483782 4.0616969884 -1.2642706116 -0.7209668201 0.6143355690
O 6.0844231835 6.1197118797 4.0838244397 0.4783281145 0.8839548198 0.2677930350
O 2.0197276945 0.0622087631 2.0686445849 -0.1675481804 -0.3507881468 -0.3423640564
O 6.0142194324 0.0602531650 1.9675134517 0.3230280764 0.2437467585 -0.6804278969
O 2.0427305441 4.0955143679 2.0238171827 -0.2649410411 0.1098083151 0.1109799969
O 6.0290506674 4.0941565850 1.9696224567 -0.1601054876 0.3511712121 0.3829048691
O 2.0278895833 0.0202609309 6.0645260886 0.3199740066 -0.1802409846 -0.2837012779
O 6.0158891430 0.0598987259 6.0830699475 0.1139378766 -0.1070133531 0.0938634081
O 2.0201217274 4.0107603067 6.0635118155 0.2663125000 0.5198459919 0.0679029184
O 6.0785216216 4.0243029435 6.1306152897 0.1439292988 -0.3083199524 -0.2992896151
O 0.0492818801 2.0488056893 1.9948617794 -0.2167182648 -0.3870332597 -0.1384921126
O 4.0852432410 2.0316487692 2.0054122268 0.7331187751 -0.4359610932 0.5070284804
O 0.0197902095 6.0370044795 2.0771583507 -0.1714168084 0.2358853788 0.0751033940
O 4.0251700935 6.1015671430 2.0557952426 0.4291045309 0.7982313763 0.4983943948
O 0.0526035438 2.0246158411 6.0832979080 0.1157763630 -0.4111100836 0.0345054524
O 4.0741694718 1.9938259784 6.0394379313 0.4938795677 -0.2751213126 -0.1506447323
O 0.0554150701 6.0225324413 6.0847221402 0.3083209104 0.4705933075 0.1877583738
O 4.0795924468 6.0415486343 6.0148891772 -0.0449287226 0.3565720384 -0.5599129855
Ti 1.9952200147 2.0038979529 2.0109888793 -0.2935612009 -0.0995197135 0.1787878254
Ti 6.0724408630 1.9889071145 2.0809014370 0.0152385113 0.0669797495 0.4213073397
Ti 1.9810795728 6.0848915357 2.0437979817 -0.5881942712 0.5016827052 -0.2813848946
Ti 6.1156079839 6.0366109646 2.0261601697 0.4239627171 0.1076507638 -0.0104983631
Ti 2.0001706506 1.9815370839 6.1198741068 -0.3308121801 -0.1387112601 0.1929343094
Ti 6.0420815250 2.0580030530 6.0692421516 0.3137968523 0.3445997960 0.1360759158
Ti 2.0536016330 6.0796712540 6.0351100174 -0.1841476032 0.3246654388 -0.1658580536
Ti 6.0398116217 6.0232396899 6.0455091001 0.0643568034 0.0555383580 0.1630073717
40
Lattice="8.09698446 0 0 0 8.09698446 0 0 0 8.09698446" Properties=species:S:1:pos:R:3:force:R:3 energy=-29832.8070234 frame_id=supp_018 structure_id=extxyz total_charge=0 stress="-0.0426089900704 -0.000381604030183 0.00086785449656 -0.000381604030183 -0.0449602227737 0.00041267117749 0.00086785449656 0.00041267117749 -0.0434839795148" phase_label=cubic
Ba 0.0687707424 0.0332523765 0.0664470358 -0.7912443951 -0.5392674722 -0.4539570553
Ba 4.0616376423 8.0845068049 0.0112063037 0.3307070581 0.2073137057 -0.1830634075
Ba 0.0053275191 3.9566930900 8.0849087448 0.0662460813 0.8549742261 -0.1615970290
Ba 4.0930185534 3.9812821394 8.0301102850 -0.3472219923 0.3244596065 0.1360950002
Ba 8.0519423468 0.0519518523 4.0802886480 -0.1264223499 -0.8329027919 -0.2375857224
Ba 4.0365130639 0.0642047854 4.1095908938 0.3218349284 -0.7673627384 -0.3827139084
Ba 8.0310138338 4.0784952758 4.0308120854 0.3446715837 0.3902579466 0.1207900626
Ba 3.9922078363 3.9933371941 4.0099936130 0.2961333493 0.7211871162 0.3369601883
O 2.0762998200 2.0760464150 8.0131298043 1.2643968009 1.1915693500 -0.6983147556
O 6.0559194753 1.9719448320 0.0456025792 -1.4446992868 0.1515859678 0.2157312380
O 2.0598622035 6.0921685890 8.0559921026 -1.4581363353 -1.4137547980 1.6093687577
O 6.1094918324 6.0347028499 8.0177700054 1.7691707770 -0.0233249685 0.4188109628
O 1.9889652683 2.0660846701 4.0827208094 -0.4731665973 1.3660215390 1.5650860039
O 6.0683723011 2.0161023047 4.0660155299 0.7524577864 0.7111706678 -0.5089507968
O 2.0537549142 6.0813170955 4.0270259009 0.4567358980 -1.2355995595 -1.1221762805
O 5.9943114938 6.0091382857 4.0120559325 -0.9248739621 -0.2846706762 0.6999786543
O 2.0504993451 0.0034599468 2.0546540730 -0.4894539704 -0.8012130227 0.9070183088
O 6.0855910817 8.0265353481 2.0539971173 0.0969842254 0.0872693313 0.4992140467
O 2.0479932686 4.0863474417 2.0516594998 -0.0487966857 0.3219225267 0.6379730699
O 6.1344915849 4.0984613288 2.0912240532 -0.1238946017 0.2005291847 0.0366713813
O 1.9643175229 0.0046180084 6.0320210135 -0.0775927211 -0.4096427569 -1.0547674554
O 6.0487257753 8.0956735380 6.0986385655 -0.0006464492 -0.1606403229 -0.2239676993
O 2.0316025500 4.0215010993 6.1423041515 0.1274527322 0.1887909602 -0.0584019504
O 6.1237238867 3.9763757102 6.1320154230 0.3752057881 0.3760722812 0.6981206642
O 8.0584135320 2.0683510422 1.9857946175 -0.1347006560 0.8798864812 -0.2478686331
O 4.0774039519 2.0340350405 2.0617014667 -0.1326548926 0.8938047663 -0.2039263422
O 8.0626808641 6.1273124744 2.0661207935 -0.1341292922 -0.6750046065 -0.3078807026
O 4.0925349900 6.1035758813 2.0586796317 -0.4549338770 -1.1427087065 -0.6309924833
O 8.0190485980 2.0375747862 6.0174516735 0.3767275648 0.2191690077 0.2009228865
O 4.0716526222 2.0406569092 6.0541042005 0.1897683406 -0.2895297974 -0.2042496639
O 0.0409782822 6.0715486569 6.0169426054 -0.1034129135 0.2406523244 -0.5606936661
O 4.0878656890 6.0347987613 6.0709318635 -0.2410246753 0.2354293541 -0.2922205174
Ti 1.9437725801 2.0013389107 2.0772645841 1.2133116632 -0.4740131499 0.2897854370
Ti 6.0929701897 2.0448002704 1.9915901731 -0.3171558454 -0.1564728271 -0.1129340582
Ti 2.0902506644 6.1363156747 1.9714378885 0.9923388644 0.0010017554 -0.4757730575
Ti 5.9858624008 6.0885907630 2.0382091330 -1.0256012808 0.0124584127 -0.6719182618
Ti 1.9926299473 1.9724269625 6.0076575643 1.0171807024 -0.4311777411 0.3469831630
Ti 6.0190315423 1.9980913885 6.0523264357 -0.3511597098 -0.4116514301 -0.1051323433
Ti 2.0295020619 6.1003463478 6.1045213622 -0.2649968711 0.1326782767 0.1391031809
Ti 6.1377218826 6.0787398886 6.0617554963 -0.5254047832 0.3407325773 0.0404727841
40
Lattice="8.09698446 0 0 0 8.09698446 0 0 0 8.09698446" Properties=species:S:1:pos:R:3:force:R:3 energy=-29833.9620065 frame_id=supp_019 structure_id=extxyz total_charge=0 stress="-0.0492708187248 1.02815886529e-05 3.65110294699e-05 1.02815886529e-05 -0.0493889564366 5.11519863421e-05 3.65110294699e-05 5.11519863421e-05 -0.0494497411699" phase_label=cubic
Ba 8.0956277362 0.0100178257 8.0964012317 -0.0588306388 -0.1071575222 0.0875815335
Ba 4.0448378337 8.0910829478 0.0049147991 0.1143822393 0.0670112686 -0.0745170420
Ba 0.0104125751 4.0588579813 0.0136620185 -0.0112353574 -0.0103246323 -0.0492471159
Ba 4.0641396718 4.0468386860 0.0155373639 -0.1158672149 -0.0250733817 -0.2445949175
Ba 8.0774547180 8.0871753545 4.0584202817 0.0923189172 0.0606603135 -0.1651465483
Ba 4.0419815373 0.0128708610 4.0666723608 0.0732057265 -0.0123899618 -0.0668356670
Ba 0.0191199063 4.0492658625 4.0653181327 -0.0767893872 -0.0361457423 -0.1478978526
Ba 4.0361723320 4.0465234355 4.0321333589 0.0523041653 -0.0531388176 0.2214179017
O 2.0259384373 2.0354926124 8.0968949713 0.0675526093 0.1237975933 0.0059002897
O 6.0840191451 2.0281788013 8.0937890875 0.1240508809 -0.5238787970 0.2209566502
O 2.0135683058 6.0851215149 0.0046638515 -0.1371984651 0.1059857603 0.0355659296
O 6.0549800914 6.0799041343 8.0837987116 0.1994718919 0.3640655514 -0.1495474422
O 2.0418402721 2.0289363041 4.0593847936 0.2908923712 0.0499983342 -0.0113835276
O 6.0661380780 2.0048879023 4.0284559369 -0.4459975247 -0.1139108547 0.0488333817
O 2.0114509922 6.0538270159 4.0453859658 0.1265528166 -0.0284287708 -0.0735050922
O 6.0705856255 6.0763369894 4.0577225736 -0.1913747522 -0.0740803936 0.1948336695
O 2.0285791376 8.0844541813 2.0126976388 0.0159486401 -0.0794719567 0.0255099765
O 6.0643811491 0.0025894760 2.0097421854 -0.0470104587 0.0697690467 -0.0574586451
O 2.0108212382 4.0384762914 2.0049524464 0.0481890340 -0.1144520415 0.0705803800
O 6.0549138239 4.0637739725 2.0130806941 0.1146719954 -0.0580705205 0.0978963230
O 2.0309255627 0.0123413936 6.0809662929 -0.1745018022 -0.0620836258 -0.2596021782
O 6.0857036960 0.0153559567 6.0794894872 0.1481855672 0.2153074989 0.0029637780
O 2.0061562491 4.0332518392 6.0575382650 0.0774241534 0.1141997399 0.0800893887
O 6.0884588626 4.0544343500 6.0881221131 -0.0129068846 -0.0394275934 0.0894109253
O 8.0959809456 2.0128155688 2.0074885029 -0.0450812513 -0.0836616300 0.0941466578
O 4.0350648233 2.0095556736 2.0414743095 0.0383022896 0.1342754944 0.0513339006
O 8.0784556194 6.0774630394 2.0335377745 0.1237570107 0.0355789753 0.1083555971
O 4.0612380705 6.0892680619 2.0316569200 0.0559251940 -0.0931922147 0.0590588205
O 0.0176927367 2.0116805631 6.0765305372 -0.1079669220 -0.2464570601 -0.0627684313
O 4.0559677280 2.0198920397 6.0671797348 0.0290008796 -0.0069009282 -0.0612557608
O 0.0052311091 6.0609776942 6.0603032692 0.0955074470 0.2717738223 0.1392765893
O 4.0438785988 6.0844380311 6.0763229249 -0.0225312843 -0.0198405692 -0.1515612394
Ti 2.0416158185 2.0255687943 2.0298839026 -0.1575307989 0.0882798768 0.1270631612
Ti 6.0896873865 2.0289529533 2.0257020527 -0.0941181453 0.1405489673 -0.1600599901
Ti 2.0392187569 6.0875627727 2.0086475255 0.0398368314 -0.0607273355 -0.0548392302
Ti 6.0717507432 6.0530477525 2.0210553419 -0.3228999750 -0.1609380364 -0.0239281564
Ti 2.0098278607 2.0207092632 6.0852035967 -0.1983248021 0.0748863624 -0.0400046706
Ti 6.0900651826 2.0224706118 6.0864342087 0.1884378715 0.0875816967 0.0860797171
Ti 2.0076544746 6.0721767160 6.0625047866 0.1107072892 0.1137551683 0.0665009651
Ti 6.0681523685 6.0661295146 6.0560192507 -0.0064601567 -0.1077230844 -0.0592020288
40
Lattice="8.09698446 0 0 0 8.09698446 0 0 0 8.09698446" Properties=species:S:1:pos:R:3:force:R:3 energy=-29833.840304 frame_id=supp_020 structure_id=extxyz total_charge=0 stress="-0.0483353790716 -0.000270903993036 -8.02005641408e-05 -0.000270903993036 -0.0483621098502 -0.000201668619329 -8.02005641408e-05 -0.000201668619329 -0.0486302955894" phase_label=cubic
Ba 0.0012704589 0.0162187012 8.0866078049 -0.0779894648 -0.1091022865 0.1138234050
Ba 4.0393173493 0.0035401626 0.0274789287 0.1271010497 0.0214292809 -0.0278273925
Ba 0.0293750249 4.0093181533 0.0022143542 -0.2230279650 0.1745057038 -0.0836589368
Ba 4.0181632497 4.0677841004 0.0059546231 0.2468592664 -0.1805392878 0.0524249647
Ba 0.0033303034 0.0122355337 4.0806395859 0.0975147217 -0.0380041480 -0.2248294894
Ba 4.0798349829 8.0553858800 4.0596265625 -0.2962540009 0.2535877625 -0.1462781205
Ba 8.0740206477 4.0793962070 4.0528373242 0.2554895329 -0.2358674096 0.0531110365
Ba 4.0135017904 4.0687985893 4.0600781304 0.0650182900 -0.1903043568 -0.1305368404
O 2.0469871603 2.0112523062 8.0955100238 -0.0086828705 0.1603321779 0.5751639415
O 6.0920683421 2.0453299169 8.0881817312 -0.1258258640 0.4916062267 0.1234555629
O 2.0144169128 6.0422541200 8.0927234903 0.0150883074 -0.2074383980 0.2749664220
O 6.0694763687 6.0803806710 0.0360087264 -0.1351849513 -0.4498308644 -0.1310723531
O 2.0148661135 2.0587787280 4.0541625245 -0.0877183766 0.5884675384 -0.4481515873
O 6.0602407801 2.0328097794 4.0461943343 0.3456834322 0.2400028515 0.0648830115
O 2.0312294305 6.0653285190 4.0809862483 -0.2710880622 -0.7868235824 -0.5993984456
O 6.0569244841 6.0552292994 4.0295118081 0.3563258336 -0.4256262870 0.0523244509
O 2.0366606660 8.0936200338 2.0517985882 -0.1038380135 -0.0740387914 -0.2482365279
O 6.0962363494 0.0325869949 1.9950368769 -0.2438896238 -0.1434720104 -0.3605520832
O 2.0349649181 4.0547143110 1.9889065615 0.0982660860 0.3974792593 -0.0017279286
O 6.0873684818 4.0290030043 2.0516374423 0.0163022255 -0.0303110427 -0.0838790859
O 1.9885865680 0.0222172152 6.0329424513 -0.0011873260 -0.2585747944 -0.4029783234
O 6.0727211259 8.0737071256 6.0650898192 0.0467719983 -0.2157713426 0.0835587839
O 2.0141824927 4.0498931736 6.0336614054 -0.0260357975 0.1444923501 0.1062601504
O 6.1055485479 4.0783597934 6.0403673657 0.0988612178 0.3179912578 -0.1010949579
O 0.0165213886 1.9966149168 2.0169474396 -0.0652155552 -0.0156685766 -0.2096312662
O 4.0321736209 2.0463465738 2.0515712461 -0.1337295978 -0.3659775540 0.1948244606
O 0.0382995996 6.0567222043 2.0133626248 -0.0626755961 0.0417240673 0.1287514864
O 4.0288960860 6.0936602294 2.0081162797 -0.0558917503 0.1685570238 -0.2083788475
O 8.0939546687 2.0465080319 6.0496189760 0.1827475738 -0.1528166385 0.3321797113
O 4.0241755066 2.0012588381 6.0487029667 0.0194649824 0.4920326698 0.0713520203
O 8.0852557822 6.0550019455 6.0842367473 0.1769724503 0.2345133219 0.4268593272
O 4.0543332046 6.0919277174 6.0779601078 -0.3879352112 0.0260116131 0.2372562699
Ti 1.9964799911 2.0123516898 2.0501218957 0.1468715480 0.1057364724 0.0327482466
Ti 6.0437665971 2.0227091893 2.0450321726 0.4515024518 -0.2151647718 -0.1953265989
Ti 2.0128284834 6.0773369212 1.9834202070 -0.3507062616 0.2283734585 0.0675689819
Ti 6.0843020142 6.0953398066 2.0234848069 0.3373745494 -0.0301432866 0.0427622072
Ti 2.0500294517 1.9843534106 6.1021162199 -0.4023454284 -0.2785329274 0.1956862781
Ti 6.0744054950 1.9891634128 6.0768189568 0.2727629022 0.0316841835 0.2038566244
Ti 2.0448337292 6.0850460598 6.0685592484 -0.1280740895 0.2724410136 0.0218612652
Ti 6.0811565721 6.0502214736 6.0814625934 -0.1696826134 0.0130401242 0.1478801769
40
Lattice="8.09698446 0 0 0 8.09698446 0 0 0 8.09698446" Properties=species:S:1:pos:R:3:force:R:3 energy=-29833.5512892 frame_id=supp_021 structure_id=extxyz total_charge=0 stress="-0.0461016013748 -3.56217437509e-05 -0.000592715837472 -3.56217437509e-05 -0.0474840568817 -0.000108862894951 -0.000592715837472 -0.000108862894951 -0.0467538330637" phase_label=cubic
Ba 0.0051814696 0.0248518073 0.0101339134 0.1093706821 -0.3657781988 0.0315710987
Ba 4.0703262631 8.0749065103 0.0461781896 -0.2501343816 -0.0119397868 -0.3843430714
Ba 8.0359082994 3.9992051177 0.0483179258 0.6068781656 0.5150675451 -0.1189376968
Ba 4.0656235262 4.0042538547 8.0781464503 -0.3052647633 0.4293703525 0.1757273785
Ba 8.0527805659 8.0753445576 4.0980269228 0.4739143672 0.2540337125 -0.3667786752
Ba 4.1015764220 0.0173415968 4.0342122039 -0.5243860426 -0.0533880262 0.1926111002
Ba 0.0096965270 4.0783657932 4.1095237698 -0.0160222849 -0.3036782422 -0.5550346086
Ba 4.0286382354 4.0782598458 4.0456483122 0.1180525032 -0.2551506668 -0.1654832333
O 2.0648444085 2.0565776093 8.0748271769 -0.0623916788 0.0636006691 1.3894751182
O 6.0227766276 2.0630883700 8.0873303865 -0.0854560524 -0.4157040371 0.8370577801
O 2.0618528379 6.0961366734 8.0607595348 -0.5099521765 -0.5058399558 0.0756686525
O 6.0764894790 6.0964395295 0.0063641856 0.2205205551 0.2934765374 0.4250152506
O 1.9821007105 1.9836228651 3.9999902122 -0.3037503034 -0.8854300500 -0.5610576375
O 6.0185442607 2.0499182787 4.0756478662 -0.3177922632 0.0591044926 -0.6866293307
O 2.0134773639 6.1114774967 4.0019803625 0.5945931596 1.0385617065 0.5698512871
O 6.0364348386 6.0857814781 3.9974122502 -0.0468039725 -0.2245182265 -0.0027037960
O 2.0345940833 0.0302179043 2.0668229277 -0.1875134820 -0.1442965665 -0.2461524822
O 6.0940656421 0.0052274383 2.0265564175 0.4005798429 -0.2106636484 -0.1675525766
O 2.0414993756 4.0782805480 2.0066432900 -0.2185080668 -0.1390953594 0.0207944777
O 6.1170517194 4.0607348202 1.9975625923 -0.1764414734 -0.1075531877 -0.0221826515
O 1.9714194498 8.0618275599 6.0911406333 0.4061546338 0.4021598921 -0.1240434091
O 6.0253088469 0.0164189405 6.0660746237 0.4504615785 0.0255189806 -0.5486650454
O 2.0613135014 4.0500415613 6.0380691430 -0.0410030471 -0.2760329422 0.6870036302
O 6.1087527972 4.0451864167 6.0660870219 0.2262936990 -0.1271337913 0.5029977882
O 8.0958783051 2.0005189666 2.0720377616 0.0329591675 -0.0354623412 -0.6494231850
O 4.0894534728 1.9568740195 2.0635085012 -0.0803129376 -0.2169997353 -0.1636774548
O 0.0473399204 6.0680584386 2.0194691404 0.0156494823 -0.6186270693 -0.0250451945
O 4.0121177023 6.0409315612 2.0064440946 -0.2507006314 -0.1759717382 0.0683714984
O 0.0362980209 2.0310109418 6.0223813347 0.3930622348 0.6894519438 -0.0596715578
O 4.0697680854 2.0321595505 6.0315846257 0.2500957319 -0.0647927324 0.1885318373
O 8.0554561982 6.1062118718 6.1194520415 -0.3479154448 0.0342422770 0.0600654484
O 4.0272735334 6.0148826985 6.0307658630 -0.1293641875 0.4240503753 0.1381164636
Ti 2.0702788550 2.0213261496 2.0445856847 -0.4855122657 0.2307058609 -0.5067110380
Ti 6.1166515160 2.0595102795 2.0617806006 -0.3556921833 0.5015181313 -0.3679034816
Ti 2.0024595798 6.1121816585 1.9995758223 -0.2050313092 0.1006297810 -0.2145165792
Ti 6.0195893290 6.0738933017 1.9787393345 0.9762381312 0.2475145854 -0.1058166062
Ti 2.0115178236 2.0122003623 6.1345280131 0.0455075287 0.0099808421 0.5648759756
Ti 6.0361165642 2.0079515603 6.1264437598 -0.1421981181 -0.0035439740 0.3376419601
Ti 2.0469398751 6.0010437075 6.0384203654 -0.3891300494 -0.3722425737 -0.3719928401
Ti 6.1022931680 6.0604430987 6.0565159448 0.1109456523 0.1948551649 0.1489454058
40
Lattice="8.09698446 0 0 0 8.09698446 0 0 0 8.09698446" Properties=species:S:1:pos:R:3:force:R:3 energy=-29832.7367557 frame_id=supp_022 structure_id=extxyz total_charge=0 stress="-0.0410976415472 -0.00020667973379 0.00026323525974 -0.00020667973379 -0.045888752194 -0.000832174440449 0.00026323525974 -0.000832174440449 -0.042873348019" phase_label=cubic
Ba 8.0543546222 8.0290411529 0.0716333750 0.4645593001 0.5206539590 -0.9015609013
Ba 4.0246059026 8.0726775682 0.0187192918 -0.1087050089 -0.0079090466 0.1420168213
Ba 0.0192584647 4.0209020415 8.0415094736 -0.1006461666 -0.0415753447 -0.2564671002
Ba 4.1151735985 4.0351322839 0.0834319009 -0.5777515691 0.2429637975 -0.5449109611
Ba 8.0584619039 0.0528455589 4.0136235838 -0.2061751234 -0.2374146883 0.8715016232
Ba 4.0286497710 0.0070572672 4.0409712185 0.4592449697 -0.3029047155 -0.1545987462
Ba 0.0229673797 4.0906568433 3.9901127664 -0.7784795824 -0.3421880208 1.0804407574
Ba 4.0491088249 4.0243097329 4.0484568298 0.5769151212 0.3656620770 0.1199934416
O 2.0648127350 2.0459150693 0.0476309592 1.4504155080 -0.2230724026 -1.9561375720
O 6.0068957936 2.1012359992 8.0530733336 -1.8226182609 -0.6391779709 0.0531016398
O 2.0120597201 6.0397179382 8.0536430594 1.6969080165 0.7884855137 -1.3483028414
O 6.1340568952 6.0866002107 8.0440885351 -1.3625605005 0.1821670107 0.4939648619
O 2.0655859842 2.0056929002 4.0061149604 -0.6958501886 -0.0322474715 1.6751219836
O 6.0929769458 2.0380082066 4.0982697596 1.2994385315 0.3675893462 0.0867466317
O 2.1031304927 6.0598243146 4.1240548950 0.1603751438 0.3765965523 1.6407885906
O 6.1036443174 6.0931450975 4.0055335728 -0.4421816899 -0.8724773598 0.1281847289
O 2.0651690615 8.0278581605 2.0217190452 -0.2383109451 -0.3993419297 -0.5689252658
O 6.0744159509 0.0433583861 2.0241970891 0.4089248670 -0.4121631498 0.6548616460
O 2.0230380436 4.0182940756 1.9724302640 -0.0931404742 0.1305567368 0.1316857556
O 6.0369344592 4.0798009199 1.9862352703 -0.2462321537 0.1865177495 0.8649097172
O 2.0115794413 8.0397837331 6.0357789873 -0.4276758116 0.2042885856 0.4463343025
O 6.0278797249 0.0687363915 6.0246788784 -0.0450855806 0.2467998191 -1.2442738953
O 1.9755360691 4.0636097540 6.1300684046 -0.7490418083 -0.3864574889 -1.2170609742
O 6.1125565496 4.0710493272 6.0518137987 0.1596515399 0.0025204358 -0.7316485323
O 8.0168027091 1.9788761306 2.0419984222 -0.6154815393 0.8255297002 0.3658200037
O 4.0999928139 2.0586949283 2.0792974245 0.1303900302 -0.3854495965 -0.1557647242
O 0.0392185070 6.1114151824 2.0470223015 -0.4638849927 0.1160800764 0.8470144888
O 4.0115917953 6.0827205165 2.0210766058 0.7010872776 0.3837251514 0.3326893941
O 8.0207010438 2.0492499490 6.0535224115 0.0788509776 0.9501098714 0.0189785255
O 4.0976704072 2.0384064876 6.0569225621 0.1586527954 -0.8455999539 0.2425381500
O 8.0411951518 6.0292575066 6.0967932074 0.3351024420 -1.1176470548 -0.8179602205
O 4.1049543364 6.0223024054 6.0102603784 -0.3491333925 0.2210520657 -0.1542462360
Ti 1.9538663734 1.9977748590 2.1180375604 1.3223948623 0.3598024580 0.0739429490
Ti 6.1108272735 2.0529546046 2.0535627908 -0.3728007498 -0.1804656292 -0.0048117181
Ti 1.9701722995 6.0010555791 2.1139641388 -0.2396361294 -0.3780515696 0.1244153605
Ti 6.1247267421 6.0592639856 2.0205313501 0.3263949379 -0.2430583264 0.0827542386
Ti 2.0906386021 2.0393177431 6.0464130745 1.4624902679 -0.2149243954 0.0109452464
Ti 6.0393972483 2.0353741964 6.0884641886 -2.0907346861 0.0710649389 -0.1642885198
Ti 1.9746386727 6.0529530996 6.0416090923 0.8356784610 0.4249643389 -0.5680448995
Ti 6.0574270322 6.1148190931 6.0624244386 -0.0013486961 0.2949959308 0.3002522503
40
Lattice="8.09698446 0 0 0 8.09698446 0 0 0 8.09698446" Properties=species:S:1:pos:R:3:force:R:3 energy=-29833.9642418 frame_id=supp_023 structure_id=extxyz total_charge=0 stress="-0.0495486020785 1.72290628974e-05 1.47172537033e-06 1.72290628974e-05 -0.0495218296141 2.86511285497e-05 1.47172537033e-06 2.86511285497e-05 -0.0495858790375" phase_label=cubic
Ba 0.0041630451 0.0185803131 0.0143202539 -0.0537865180 -0.0850702136 -0.1764638752
Ba 4.0415120502 8.0956253247 0.0006647451 0.0691344761 0.0462453361 -0.0237805410
Ba 8.0843852691 4.0553010925 8.0808403772 -0.0010440811 -0.0659549462 0.1012176922
Ba 4.0273464360 4.0561512881 0.0095761418 0.1790450903 -0.1037234016 -0.0092573856
Ba 0.0081728931 8.0900485975 4.0327162692 -0.0932406107 0.0470945601 0.1640771692
Ba 4.0280686532 8.0868711354 4.0666216562 0.1590931539 0.0339632413 -0.1038890997
Ba 0.0017079131 4.0497944494 4.0314318255 -0.0456170943 -0.0385748229 0.0555962702
Ba 4.0547271966 4.0328000085 4.0656872289 0.0101180831 0.0844153298 -0.1548058571
O 2.0047164977 2.0164372047 8.0924236169 0.2216396004 0.2114843807 -0.1450939799
O 6.0687276614 2.0392711670 0.0026282512 -0.2043710533 -0.0961810229 0.1406522845
O 2.0352445720 6.0722350586 8.0848336081 0.3024992624 -0.1641540961 0.3418685078
O 6.0810319349 6.0837953483 8.0868416286 -0.3869713769 -0.0412942773 -0.0092110256
O 2.0103616207 2.0226938130 4.0434178170 0.0793497134 -0.2614492973 0.2569462478
O 6.0873949648 2.0104522465 4.0496001030 -0.1740002927 0.0292282894 -0.1727413289
O 2.0395549314 6.0657631805 4.0346062126 0.0262329159 0.2703506877 -0.1369997351
O 6.0784011467 6.0787453552 4.0397483371 -0.1852152479 -0.0183619435 0.1724562434
O 2.0406637427 8.0846705415 2.0397658021 0.0530310347 -0.0077067227 0.1668131089
O 6.0830026410 0.0128995876 2.0360188093 0.0686882914 -0.0660326407 0.0710102089
O 2.0297099077 4.0500964635 2.0167308362 -0.0776078586 0.0300607644 0.0021607290
O 6.0724161132 4.0422033498 2.0425752940 0.0133329676 -0.0685311916 -0.0104697307
O 2.0012555485 0.0025135875 6.0527822678 0.0210341892 0.0579009240 -0.0220305207
O 6.0760922014 0.0112461994 6.0719057474 -0.0569503414 0.0784575428 0.2080823776
O 2.0167476660 4.0424926672 6.0840861406 -0.1321363304 -0.0590599398 0.0277867380
O 6.0861707355 4.0464683458 6.0541127277 0.0674599696 0.0030547520 0.0360021306
O 8.0918145756 2.0077230268 2.0371424888 -0.1081943167 0.0453689371 -0.1363810083
O 4.0450904290 2.0322408862 2.0402136136 -0.0836725021 0.0514004477 -0.1327249447
O 8.0883223994 6.0914898006 2.0294413115 -0.1576176881 0.0056457774 -0.0149801173
O 4.0623810705 6.0583787686 2.0239796521 0.1155529706 0.2475113860 -0.1029654573
O 0.0108450955 2.0386513592 6.0827532478 0.1188848428 -0.0949930020 0.0877056359
O 4.0405760151 2.0295388400 6.0899804572 0.0607523862 -0.1080271212 0.0171310821
O 0.0066438924 6.0774193032 6.0746421389 0.0185434312 0.1794622757 -0.0942325827
O 4.0632893567 6.0760047593 6.0536073650 -0.0116094008 0.0027145978 0.0634674662
Ti 2.0130211936 2.0145458902 2.0344404295 0.1804588853 0.0797459107 -0.0922431630
Ti 6.0755401880 2.0045803713 2.0128787005 -0.0811239572 -0.0872706570 -0.0869737468
Ti 2.0095897517 6.0749814671 2.0173372878 0.2346500323 -0.1162317729 -0.0955401673
Ti 6.0783414292 6.0550380474 2.0336002868 -0.0133822054 0.0966708124 -0.0603626318
Ti 2.0058230990 2.0336720045 6.0633357936 -0.0902052289 -0.0293747591 -0.0579014837
Ti 6.0787360030 2.0316382438 6.0659322312 0.0720469893 -0.0070619888 -0.1231516092
Ti 2.0222523559 6.0579922808 6.0806962692 0.0291740946 -0.0584149776 -0.0578367800
Ti 6.0888625438 6.0886378258 6.0657722290 -0.1439762761 -0.0233071583 0.1070628795
40
Lattice="8.09698446 0 0 0 8.09698446 0 0 0 8.09698446" Properties=species:S:1:pos:R:3:force:R:3 energy=-29833.8461381 frame_id=supp_024 structure_id=extxyz total_charge=0 stress="-0.0472299790077 2.17876170824e-05 -0.000145477153426 2.17876170824e-05 -0.047589697911 5.59263938186e-05 -0.000145477153426 5.59263938186e-05 -0.0476621941052" phase_label=cubic
Ba 8.0926471484 0.0147318350 0.0034518492 -0.0201961190 -0.1766399600 -0.0895377302
Ba 4.0335954072 0.0365228608 0.0184016252 0.1410082722 -0.3096058875 -0.3702243724
Ba 0.0130036733 4.0131558052 0.0258267255 -0.1108530903 0.2847669128 -0.0075483733
Ba 4.0849865029 4.0127980119 8.0737167009 -0.1349265637 0.3081991223 0.0273233804
Ba 0.0096395827 0.0346827008 4.0125415787 -0.0521498288 -0.3086388017 0.2081198189
Ba 4.0321276820 8.0615450148 4.0244617165 0.0839661215 0.1289682401 0.3626478876
Ba 0.0100102816 4.0806059332 4.0767819318 0.0059984346 -0.0954162255 -0.3270589915
Ba 4.0853707722 4.0452117509 4.0091332370 -0.2269540088 0.0490736680 0.2486469148
O 2.0494084027 2.0624498464 0.0359588219 -0.4243142919 -0.0030535529 -0.4804878944
O 6.0957546380 2.0341317690 0.0041571395 1.0080137611 0.2528373109 -0.3235110693
O 2.0312906923 6.0744425585 0.0250248587 -0.3535667855 0.5272428232 -0.2150587427
O 6.0814016736 6.0434547107 8.0918724624 0.8160272788 -0.4026528059 -0.3390262959
O 1.9952018481 2.0072504135 4.0857735265 0.4242490934 -0.1224540634 -0.1372069640
O 6.0716360950 2.0077459470 4.0635694172 0.2144483916 -0.9566460889 0.1683377821
O 1.9968397064 6.0369365598 4.0404687016 0.0967373535 0.0538680105 -0.0103726694
O 6.0904674051 6.0414213834 4.0342256628 0.4871717529 0.6865708433 0.3961670832
O 2.0120156683 8.0793393410 2.0246436688 -0.2351712007 -0.2612621358 0.1671018030
O 6.0552791783 0.0088559524 2.0199939102 -0.3064579212 -0.0360875828 0.1119169484
O 1.9900823621 4.0112252442 2.0212693090 -0.0773890750 -0.1227908404 -0.0514317989
O 6.1094657379 4.0515976081 2.0252293427 -0.2119500972 0.1625836760 0.0883666184
O 2.0487613472 8.0949641677 6.0974094433 0.2191096535 0.1436124830 0.2214435887
O 6.0951520794 0.0050178892 6.0614208230 -0.2381529048 0.1926289690 -0.0938186579
O 2.0008406073 4.0600988277 6.0981296965 0.2156223721 0.1195320398 0.2362183565
O 6.0840900782 4.0715115740 6.0879365915 -0.3382638557 0.1263949552 -0.0410495468
O 8.0581915997 2.0555770420 2.0271854893 0.0948636864 0.1007660212 0.0761588161
O 4.0220131109 2.0520321765 2.0022423149 -0.1321891143 0.2297286474 0.0822817637
O 8.0773056541 6.1063044193 1.9970431859 0.2660502682 0.0941303394 0.1851900566
O 4.0193648994 6.1094962455 1.9931198137 -0.5245470206 0.2253757070 0.1006776938
O 8.0596026666 2.0229301947 6.0952078469 -0.2747471913 0.0111029400 -0.0849524185
O 4.0273457091 2.0037115502 6.1102621062 -0.2291364068 0.1063381136 0.0173960554
O 8.0690699449 6.0657294394 6.0793817638 0.1368977304 -0.2244379645 -0.1181988283
O 4.0230774334 6.0736052229 6.0916275135 -0.2242678624 -0.2398694134 -0.2215517480
Ti 2.0551976713 2.0620988217 1.9977087032 -0.0227152835 -0.3181505060 0.1075640204
Ti 6.0583957518 1.9887476719 2.0349522523 0.0932442858 -0.1033488292 0.3435598886
Ti 2.0448383596 6.0725225831 1.9971370158 -0.1345668604 -0.1421279205 0.1376654130
Ti 6.0665168587 6.0610200021 2.0210811400 0.1415231884 -0.3584211574 0.2693147993
Ti 2.0469791895 2.0360215399 6.0381423017 0.0965450695 0.1231128525 -0.1027226445
Ti 6.1100168458 2.0388054109 6.0606566861 -0.2465274592 0.3190685418 -0.2746342394
Ti 2.0425371301 6.0714741034 6.0709240766 0.0699479056 0.0418365975 -0.0352756315
Ti 6.0871522648 6.0329306111 6.0676493297 -0.0923816780 -0.1061350786 -0.2324300719
40
Lattice="8.09698446 0 0 0 8.09698446 0 0 0 8.09698446" Properties=species:S:1:pos:R:3:force:R:3 energy=-29833.4514869 frame_id=supp_025 structure_id=extxyz total_charge=0 stress="-0.0457599595935 2.99791029782e-05 0.000167735337226 2.99791029782e-05 -0.0470919490752 0.000142991186701 0.000167735337226 0.000142991186701 -0.047377500575" phase_label=cubic
Ba 8.0776458046 8.0440407613 8.0593232559 0.1860644144 0.1315031223 0.3931814276
Ba 4.1009313336 0.0521131509 0.0193706919 -0.2987400344 -0.4239264796 -0.4327862771
Ba 0.0053962385 4.1009481705 0.0240253991 0.2630637607 -0.2022795650 0.0840267885
Ba 4.0520549137 4.0385624168 8.0809368096 -0.2133038950 0.0308636418 0.0716759957
Ba 8.0645036532 8.0961924853 4.0849222965 0.2408773323 -0.0380943671 -0.3521291949
Ba 4.0482824041 8.0541289950 4.0356669014 -0.0164238726 0.5254658250 0.3477357480
Ba 0.0145071144 4.0783923594 4.0337849929 0.1451335865 -0.1807868139 -0.1189782083
Ba 3.9973397064 4.0676842822 4.0041550324 0.1384138530 -0.5039657763 0.3567892932
O 2.0747497540 2.0536573711 0.0409272128 -0.7247481201 0.0766924546 0.2734412734
O 6.0440734354 1.9941264937 8.0882790631 0.9227282948 -0.1164450120 0.2387964568
O 2.0317130097 6.0306287179 8.0596409561 -0.4940074488 -0.0789952679 -0.5060402572
O 6.0508255066 6.0760453803 8.0826019594 0.1587786237 0.3189834985 -0.1879004126
O 1.9954055170 2.0672828716 4.0078994949 1.0563578615 0.1633011204 -0.3449060330
O 6.0804400238 2.0523101273 4.0541806990 -1.4511606718 -0.6438443058 -0.0401103555
O 2.0258827460 6.1135860160 4.0500918205 -0.3305238671 -0.0533618267 0.7493034220
O 6.0274111419 6.0580167844 4.0273049956 0.2650688519 0.6066948307 0.5084084019
O 1.9867003775 8.0561578266 2.0182227247 -0.4875210749 -0.1688326398 -0.6502788673
O 6.0457911635 8.0553467107 2.0565457662 0.4195772353 0.1022916795 -0.0255803182
O 2.0557250588 4.0732691729 2.0565077571 0.0956790060 0.3000197604 0.3363142531
O 6.0808668389 4.0474856510 1.9992978624 0.0333717594 -0.0654937642 -0.0416864178
O 2.0711323414 0.0021305258 6.0753046911 0.1798010404 -0.2771112718 0.7305168781
O 6.0461527766 0.0184898321 6.0201654079 -0.0771133388 -0.0006261357 -1.0213508670
O 2.0565903368 4.0663639542 6.1026426444 0.0580099260 -0.2235578424 0.3502486476
O 6.0215909093 4.0233073164 6.1066493626 0.2436230755 -0.2581991805 0.1818994624
O 0.0110580867 2.0270551751 2.0001886384 0.3782361299 0.6081486647 -0.0775680500
O 4.0070670734 1.9733523724 1.9804368128 0.1331950882 0.5781096465 -0.0867125969
O 0.0593797760 6.1139436162 2.0044855858 -0.1059599934 0.0462131155 -0.1580355406
O 4.0265156179 6.0771477112 2.0534827613 -0.1260002598 0.2383577159 0.1356941307
O 8.0840986981 2.0676638898 6.0179279125 -0.2975737623 0.4625397458 0.0062948799
O 4.0955206686 2.0526133483 6.0971823046 0.1772347128 -0.4742198625 0.2101682112
O 0.0127182322 6.0972474637 6.1276666762 -0.3438816545 -0.6682093729 -0.3726846313
O 4.0165167089 6.0224950191 6.1173397368 0.4948680044 0.7537937262 -0.2095118319
Ti 2.0682016752 1.9796568349 1.9900337400 -0.7672194064 -0.0930002157 0.0395241154
Ti 6.0696283877 1.9834612357 2.0797644574 0.5894465942 0.1653203103 0.4175514332
Ti 2.0727252004 6.0693175126 2.0188886438 -1.0669781553 -0.4074088725 0.1449525036
Ti 6.0778501849 6.0191098614 2.0457586325 0.4527420795 -0.0486145422 -0.1703375867
Ti 1.9793467339 2.0499072228 6.0723748573 0.6067085398 -0.1097597074 0.4666086893
Ti 6.1132882244 2.0655137012 6.1284981595 -0.5440779469 -0.0578519909 -0.2301412706
Ti 2.0593822742 6.0933867064 6.0437086100 -0.5782042361 -0.2699698808 -0.5371215957
Ti 6.0336950916 6.0245346157 6.0704883335 0.6844579681 0.2562558354 -0.4792716990
40
Lattice="8.09698446 0 0 0 8.09698446 0 0 0 8.09698446" Properties=species:S:1:pos:R:3:force:R:3 energy=-29832.605203 frame_id=supp_026 structure_id=extxyz total_charge=0 stress="-0.0412356290363 -0.000182037466663 -0.000741391739395 -0.000182037466663 -0.0405241828346 -1.91478005914e-05 -0.000741391739395 -1.91478005914e-05 -0.0413089967987" phase_label=cubic
Ba 8.0304388302 0.0130553796 8.0968407819 0.0800905702 -0.1113793089 0.1779771996
Ba 3.9879674262 0.0676063295 8.0205661151 0.7757421424 -0.5427692513 0.4861323106
Ba 8.0647239862 4.0481865946 8.0274912162 0.4064480043 0.1693721206 1.1086272779
Ba 4.0446524131 4.0143023662 0.0610976960 -0.0317627679 0.4505086014 -0.7280918521
Ba 8.0490438976 8.0304995224 4.0364275800 0.4500769496 0.6888679772 -0.2219102092
Ba 4.0156027203 8.0851451876 4.1010094728 0.1422144082 0.2850911043 -0.1557726341
Ba 8.0850368019 4.0771727955 4.1150919705 0.8663022999 -0.3901562447 -0.9987640907
Ba 4.1147006146 4.0751271220 3.9683853275 -0.9155467093 -0.1870991122 0.7619424093
O 2.0132892280 2.0486533296 0.0283541956 -1.1310900901 -0.4062011480 -0.5334672201
O 6.0722339554 1.9434761661 0.0195613323 0.1121559527 -0.2298431178 -2.0908273715
O 1.9527260985 6.0259853999 0.0579744410 -1.6419951537 0.6608135365 -2.0702054492
O 6.0893844664 6.0904269649 8.0355481725 0.8782608101 0.2513295530 -2.0842129735
O 1.9743001798 1.9781336023 4.0631720429 -0.2173893925 1.2077499218 0.1636868366
O 6.0624841989 2.0335975211 4.0866522320 -0.5720829781 -2.0854470140 1.8298128910
O 2.0089491325 6.0399230242 4.0729086230 1.2386835532 -0.7466543043 1.2036351112
O 6.1329982495 6.0146809479 3.9789025925 -1.0379327703 1.7108268356 2.7297594108
O 1.9755451081 0.0282462277 1.9754699511 0.4462546907 -0.3256093968 -0.5334890976
O 6.0294707029 8.0879960543 1.9999770894 0.0482764489 1.0081654728 0.2342911861
O 2.0118814645 3.9741458879 1.9657533107 0.7207656217 0.2002027005 0.0638364904
O 6.1257991054 4.0749243907 2.0952221971 -0.1298162575 -0.3073904836 -0.1956964174
O 2.0536143195 8.0645088655 6.1249155060 0.4455134702 0.0924375910 0.4834171218
O 6.0310703481 0.0242556461 6.1377445307 0.3461933479 0.1563506055 -0.0325135683
O 1.9714462512 4.0172927763 6.1425228358 0.0255008184 0.1286131986 -0.2702793519
O 6.1392085055 4.1244612327 6.1187640263 -0.2359620909 0.3902565359 0.9565543700
O 0.0668875054 2.0350446000 1.9514824160 0.6941236083 -1.1915006441 0.6554872758
O 4.1297083700 2.0197210326 2.0289719983 0.2790023234 -0.4248950607 0.8392313676
O 0.0303594952 6.0647943453 1.9484789007 0.5111023236 0.5712597842 0.8354275407
O 4.0956440635 6.0284081678 2.0100411670 -0.3303626364 -0.9333160527 -0.1459779202
O 0.0397220100 2.0671501480 6.1135642028 -0.2725675682 0.1569714786 -0.4387277696
O 4.1015171547 2.0450234131 6.1055672107 0.4560323710 0.0545628582 -1.2058065189
O 0.0199782358 6.0751114348 6.0849653115 0.3014961182 0.0025477878 -0.5890846271
O 4.0070710747 6.0265914383 6.0458544008 -0.2427918445 -0.8910506225 -0.7666339201
Ti 1.9597870405 2.0874488169 2.0169697893 -0.4176024062 -0.0410747539 0.7968170050
Ti 6.0091427775 2.0872729000 2.0840570664 0.1972683993 0.2297488543 0.4259690675
Ti 2.0668005926 6.1082332915 2.0452167388 -0.0560944849 0.1180879540 0.9445122216
Ti 6.0424451022 6.1313545878 2.0851502668 -0.5314856431 0.1699299135 0.4233141991
Ti 2.0475245027 1.9968297229 6.0664798554 -0.7251240090 -0.3010440665 -0.5251969056
Ti 6.1299457334 2.1012901322 5.9951095678 -0.4076332296 0.2811426737 -0.4969126544
Ti 2.0047951949 6.0857784333 6.0263580536 -0.4600417271 0.0984397578 -0.6766708784
Ti 6.1517923424 5.9978334012 6.0010690155 -0.0642224730 0.0321537651 -0.3601898630
40
Lattice="8.09698446 0 0 0 8.09698446 0 0 0 8.09698446" Properties=species:S:1:pos:R:3:force:R:3 energy=-29832.2219926 frame_id=supp_027 structure_id=extxyz total_charge=0 stress="-0.0375448968406 4.26236575611e-05 -0.00120928010145 4.26236575611e-05 -0.0367589824468 7.98932604456e-05 -0.00120928010145 7.98932604456e-05 -0.0373553914579" phase_label=cubic
Ba 8.0951055825 0.0738998586 0.0496510440 0.1233010274 -0.1652803072 -0.5690656653
Ba 4.1114859357 0.0490153341 0.0573955824 -0.4007847948 -0.2206508725 -0.8243434320
Ba 8.0887565993 4.0073493409 8.0465160377 0.0452597985 -0.1062270785 0.6396347930
Ba 4.1210123293 4.0828000141 0.0380123015 -0.4863599815 -0.2600085234 -0.5891250582
Ba 0.0149956752 8.0145840001 3.9745805241 -0.4370901854 1.0296115184 0.7757148603
Ba 3.9802095652 8.0291915513 4.1070017471 0.7040089521 0.5704305871 0.2612462538
Ba 0.0092362106 4.1141190578 4.1334434810 -0.3453687327 -0.9663350564 -0.9036747467
Ba 4.0865405070 4.0557949231 4.0186773342 0.0154932746 -0.2377823709 0.4889032149
O 1.9738388581 2.0700524766 8.0906714476 0.1689073096 -0.6678968359 0.6338522525
O 6.0629970673 1.9636243329 8.0140299288 0.1055471682 -0.2497194922 2.2343625281
O 2.0571725590 6.1261358463 8.0381554666 -0.1745575243 1.2332614220 0.9969170938
O 6.0741365698 6.0049240378 8.0780774157 -0.0329255561 -0.2444024232 1.1573910879
O 2.0086771261 1.9191535003 4.0526535540 0.9165020891 -0.9456279145 -0.6491941459
O 5.9572509560 2.0371495283 4.0915790220 -0.4887557076 -1.5882721434 -2.4573282216
O 2.0540223459 6.0636936839 4.0899589121 1.9045698910 1.9120576390 -1.0900054704
O 6.0508674532 5.9851195499 3.9821759752 -2.5631238536 1.0033598149 -0.5729926718
O 1.9550352125 0.0318008803 2.1027175630 0.3426288236 -0.3364301299 0.7182645836
O 6.1415226247 0.0636662692 2.0384415480 -0.0495900126 0.7000962927 1.6976735326
O 2.0391628571 3.9402846817 1.9634658419 -0.1368854449 -0.7844683375 1.5101513137
O 5.9765285714 4.0653494211 2.0129354824 0.3042404572 0.2156185834 -0.4482795059
O 2.0826796570 8.0075510815 6.1003540637 -0.1692532109 0.7505353874 0.5603757997
O 6.0850110455 0.0771917658 6.0363708980 0.8694892986 0.1830111572 -0.5771922306
O 2.0820703510 4.0053548706 6.0043186715 -0.4803427705 -0.4431048130 -1.6033547529
O 5.9752700098 3.9931446537 6.0175185290 0.6487372975 0.3921103657 -0.3193956670
O 8.0059547633 2.0762362077 2.0986818513 0.4923969303 -1.0188803884 -0.9379665913
O 4.1222793238 2.1101094608 2.1187258539 -0.4354093841 -0.6612203621 -0.4849279131
O 8.0807370259 6.1299617984 1.9387930648 -0.1891125786 1.5371830991 0.2362016171
O 4.0866637122 6.1611974479 2.0621931171 0.7398781435 0.5176767353 -0.5408654117
O 8.0347134084 1.9632349552 6.0996376127 -0.3934221475 -0.0706231232 0.1024232414
O 4.0712585223 2.0118761247 6.0115970195 0.0551498960 -1.3280525837 0.4231797755
O 0.0608343564 6.1168762597 6.0688997479 -0.6769303270 -0.0746924668 0.4855008790
O 4.1163056529 6.0559325263 6.0829028901 1.1425262759 1.6963833503 0.7137763781
Ti 2.0960971297 2.0905238617 1.9447206158 0.3735608659 0.2662503986 -0.6577209618
Ti 6.1101827973 2.0395715128 1.9575432270 -1.5954217632 -0.6222762139 -1.1681578323
Ti 2.0019745757 6.0847885712 2.0112013266 1.0912532723 -0.7150679988 0.2323834391
Ti 6.0439867624 6.0732811064 2.0571420972 -0.8127125453 -0.3246299960 -0.6985088269
Ti 2.0329498553 2.0999099589 5.9938046494 1.2838616008 0.8289095125 -0.1179308838
Ti 6.0860822731 2.0130381185 6.1034052602 -1.5870967256 0.1462886305 0.7958556283
Ti 1.9122258582 6.0649967344 6.1701671898 -0.9766466531 -0.7757760958 0.2599962837
Ti 6.0908419738 5.9702194356 6.1785557651 1.1044775273 -0.1753589671 0.2862254332
40
Lattice="8.09698446 0 0 0 8.09698446 0 0 0 8.09698446" Properties=species:S:1:pos:R:3:force:R:3 energy=-29832.0160764 frame_id=supp_028 structure_id=extxyz total_charge=0 stress="-0.0365639304963 3.08661237785e-05 0.000972913672888 3.08661237785e-05 -0.0379760337166 -0.00044421234076 0.000972913672888 -0.00044421234076 -0.0382331668783" phase_label=cubic
Ba 0.0443265128 8.0078261453 8.0739689076 -0.3985503409 0.3698597997 0.3129923753
Ba 3.9747546494 8.0378449432 0.0748892819 0.6789782666 0.9990490423 -0.4257761923
Ba 8.0566483456 4.0109295067 8.0548183761 0.1544249077 0.3344036200 0.6963008069
Ba 3.9350946388 4.1265129530 8.0306478340 0.8976009922 -0.9581128810 0.4109327705
Ba 7.9933486940 8.0251452825 4.0371865839 0.5358069386 0.8387554825 -0.2305271842
Ba 4.1183812035 0.0406401256 4.1035310007 -0.1582790101 0.5963660443 -0.2703264983
Ba 0.0998995080 4.0380164420 4.1568087649 -1.1803489482 -0.3165103759 -1.0635869455
Ba 3.9197611709 4.0866437590 4.0078647759 1.6708043464 -0.8817631441 0.1994869739
O 1.9459733727 2.0056967857 0.0153932212 -0.6782158671 -0.9584740953 -0.4597226328
O 5.9972175841 2.0485223915 0.0655494455 -0.2600524524 -0.5599299441 0.1477962366
O 2.0622678373 5.9640929460 8.0138926469 -2.1310842153 1.6419312584 -1.3992772840
O 6.0481029526 6.0884403656 8.0554190106 1.5780078308 0.6134839481 -0.7303671183
O 2.0758013306 2.1269655330 4.1122402234 -0.3656067297 -1.4378202708 0.5079529727
O 6.0596754350 2.0893884701 3.9492799361 -0.6200546185 -1.1963796377 0.1368765495
O 2.0728741003 6.0761639973 4.0103291090 -1.4336310065 0.8640387411 2.1654161529
O 6.1112795202 6.1086702000 3.9967748471 0.3554132304 0.8148254254 1.3569219174
O 2.0667342580 8.0648034569 2.0381682123 0.6965107089 0.3790146014 -0.6240062353
O 5.9570755484 8.0728808551 1.9409902406 0.7032054630 0.2618447798 -0.4019662180
O 2.0306854159 3.9622835920 1.9842927542 0.1368409100 0.4316251793 -0.2592182873
O 6.0004932949 4.0476861522 2.0072151560 0.0828698487 -0.4096490649 -0.7496052084
O 2.0185103784 0.0784172138 6.1081035081 0.0148581012 -0.5952275961 -0.6552465777
O 6.0884091991 0.0669045787 6.0605604881 0.2861725166 -0.1839930710 1.0757051428
O 2.0387826895 3.9834510954 5.9811901508 0.1502508595 -0.1892890566 0.0955990924
O 5.9630264122 4.0157708847 6.0504219941 -0.3087311576 -0.3592768691 1.0524456431
O 0.0895230605 2.0431989633 2.0334252763 0.0382613048 -1.1812084201 0.2373523551
O 4.1022050524 1.9104420009 2.1265217790 1.0496099721 -0.0851732781 0.5231525079
O 0.0274761443 6.1139164511 1.9423699718 0.5809060119 1.1518784381 0.4530084202
O 4.1429378484 6.1668703907 2.0168448654 0.1674403842 0.5999505635 -0.1046191587
O 8.0828250089 1.9011819558 6.0713285353 0.3067560126 -1.2703147972 -0.5858315217
O 4.1510754210 2.0071287499 6.1767308120 0.0012748009 -1.5201583136 -0.2801896491
O 0.0845200856 5.9939566000 6.0884638508 0.2831526504 0.9823926926 0.4647987885
O 4.0693925462 6.1457958600 6.1430082648 0.6589246386 1.0251337199 -0.1571951509
Ti 2.1264577816 2.0917987809 2.1205369433 -0.7424607465 -0.1864913800 0.2277755420
Ti 6.1370689513 2.0542270919 1.9818249809 -1.5279450895 0.8922257254 -0.3899357448
Ti 2.0803912242 6.0896408590 2.1292025719 0.9756847510 -0.5711907791 0.6265684423
Ti 5.9788198008 6.0292774440 2.0251304737 -1.8349105000 -1.0533623906 0.2941592709
Ti 1.9530583858 2.0513169707 6.1322350732 0.4759886022 1.1959842073 -0.0299435916
Ti 6.0122544029 2.1122714272 6.0648559739 -0.4975590958 0.1729961954 -0.5437574272
Ti 2.0939403514 6.0679040651 6.0306424675 -0.2109952586 0.2568578571 -0.5721323947
Ti 6.0316346225 6.0840483744 6.0240153514 -0.1313190128 -0.5082919564 -1.0520109400
40
Lattice="8.09698446 0 0 0 8.09698446 0 0 0 8.09698446" Properties=species:S:1:pos:R:3:force:R:3 energy=-29831.7401484 frame_id=supp_029 structure_id=extxyz total_charge=0 stress="-0.0386046105632 0.00173337818288 0.000546429177796 0.00173337818288 -0.0361073081719 7.39071566687e-05 0.000546429177796 7.39071566687e-05 -0.0394050059194" phase_label=cubic
Ba 0.0060596462 0.0510120783 8.0199680979 0.2228113867 -0.6952932219 0.8168680193
Ba 4.1102018631 8.0840321366 8.0402380522 -0.4792331131 0.2825193923 0.0091050256
Ba 8.0849353090 3.9678033119 0.0460945869 -0.4337817634 1.0014170167 0.3072023325
Ba 4.0093563786 4.0409206355 8.0637586213 0.9120886832 -0.2049583820 0.4226153044
Ba 0.0150742251 0.0901512054 4.0598139100 0.5591957357 -0.9859977410 -0.3719505818
Ba 4.0189077051 0.0117291006 4.0496396516 -0.4154591529 0.2285894460 0.5340181340
Ba 8.0110266003 3.9479491164 4.0316348102 0.6221629132 0.9956890709 -0.4108846705
Ba 4.0659981205 4.0688060459 4.0807131713 -0.2249720964 -0.5131566098 -0.1976569717
O 2.0278535391 2.0925538043 0.0719693408 -0.4745298792 2.0243071609 -0.5202327349
O 6.1753034493 2.1002030007 8.0860802568 -0.0754445289 1.7173767005 -0.7738461480
O 2.0351657910 6.1162467618 0.0965373011 -2.9473856878 -1.2464014671 0.4489093235
O 6.1542967139 6.0369990360 8.0027706930 2.7526586431 -1.6592131088 -1.6253252019
O 2.0836199540 1.9406300998 4.0234701981 1.0007652652 -1.5385740527 0.1309655600
O 6.0105992928 2.0744056346 4.0929468416 -0.4719995589 2.7218828237 0.6052321631
O 2.0554918917 6.1080120056 3.9999601461 -0.0298848954 2.0681253411 -0.4558925561
O 6.0542510612 5.9800644791 4.1045850222 0.9260638208 -2.1680120778 2.5355958341
O 1.9363950803 0.0291936047 1.9924549219 0.2680170147 -0.3975485158 -1.2625837670
O 6.0089389679 0.0948784909 2.0519214962 -0.8956803755 -0.9759513392 -0.8123022524
O 2.0056786078 3.9771139314 2.0924069563 0.1691694787 -0.4687601446 -1.1667389138
O 6.1721297948 4.0132110233 2.0181911764 -0.8941073180 0.6615859533 0.5258201463
O 2.0250276995 8.0577210360 6.1650970749 -0.5507571871 0.2403877473 0.7895434101
O 6.0686013947 0.0002816395 6.0657552443 0.5871004070 -0.7809799673 -0.3242427420
O 1.9332218640 4.0648488617 6.0869210757 0.1478393525 0.0247086462 0.4639207568
O 6.0964407820 4.0109134255 6.0230628657 -0.4156231841 0.9621899354 -1.6890584825
O 8.0799454031 2.0662671061 1.9263989175 0.6739944759 -0.1326446862 0.2079470977
O 4.1512996852 2.0197568923 2.1200347106 0.3353337444 -2.0458368024 0.2315794070
O 0.0223605760 6.0037551472 1.9646214659 0.6658056439 0.1499867392 -0.1097485910
O 4.0010576874 6.1317353776 1.9715820226 -1.2463079016 1.3390300229 0.4188443065
O 8.0665743858 1.9800280974 5.9808303748 -0.2703969012 0.3140399528 -0.2982372967
O 4.0051272293 1.9861712882 6.0136863955 -0.1425984276 0.0116794599 -0.3623084437
O 8.0674183862 6.1116188825 6.0207491272 0.3765428324 -0.5212408929 -0.0694547866
O 3.9694260589 6.1100823425 6.1222854670 -0.3229591798 -0.1056687431 0.0928903781
Ti 2.0320890053 1.9442598328 2.0537070608 0.3717544125 -0.8713533319 1.1528373545
Ti 6.0575066715 1.9639163850 2.1027987918 -0.7762412641 -0.1248761061 -0.6038794190
Ti 2.1164177022 6.1342734117 2.0202198330 -1.1003126631 0.8955982961 0.6858053687
Ti 5.9827973377 6.1166918038 2.1111343507 1.7351767402 -0.0793613816 0.3422266842
Ti 1.9916525053 2.1073425073 6.0768200197 0.7247880986 -0.0338687891 0.2972138050
Ti 6.0987117890 1.9384365446 6.0717271688 -0.4580596326 0.2667726633 0.5174884186
Ti 2.0712661362 6.0091725584 6.1271291069 -0.2042213388 0.0803576522 -0.1818101565
Ti 6.1584473691 6.1625316372 5.9869573348 -0.2213125989 -0.4365466592 -0.3004751141
40
Lattice="8.09698446 0 0 0 8.09698446 0 0 0 8.09698446" Properties=species:S:1:pos:R:3:force:R:3 energy=-29831.476616 frame_id=supp_030 structure_id=extxyz total_charge=0 stress="-0.0338485986457 -0.00108986194508 -9.4233191582e-05 -0.00108986194508 -0.0406130505644 -0.0010431796148 -9.4233191582e-05 -0.0010431796148 -0.0314235677012" phase_label=cubic
Ba 0.0002555570 7.9990143212 0.0546555578 -0.5571385034 1.3439497581 -0.4544725116
Ba 4.0025920168 0.0346449108 8.0153801129 0.6886658897 -0.4335547296 0.4952150566
Ba 0.0864367021 4.0088415463 0.1033674544 -1.5695535549 -0.5884413599 -0.6294624623
Ba 3.9311539215 3.9759832842 0.0030264626 1.8710960360 0.5601242381 0.1494459347
Ba 8.0936542037 8.0737584083 4.1084679444 0.2339474192 0.5343028347 -0.0571371479
Ba 3.9774577781 0.0722870975 3.9522683645 0.5095846867 -0.9110511324 0.6408663613
Ba 8.0705634640 4.0535411113 4.0194487935 -0.1165210378 -0.4852588892 0.2027932653
Ba 3.9614070789 4.0765133950 4.0883513505 1.0094578091 0.3828764089 -0.5754895710
O 2.0406116481 2.0074953881 8.0193583301 -0.1042677287 0.3578756882 -0.8307368473
O 6.0259235477 2.1067433415 0.1103288114 0.0131788149 0.7675341205 -2.1802257048
O 2.0706963712 6.0642757218 0.0286792590 2.5490936319 -0.0924940217 1.1092402067
O 6.1366873965 6.0207469264 8.0127104291 -3.5864722954 -1.1683489437 -1.3648909943
O 1.9901648812 2.0863243720 3.9464122163 0.2979876575 -1.4817347169 1.4872712938
O 6.0406895430 2.1467649138 3.9716748238 0.2193729842 1.2248249367 1.2330890935
O 2.0966362778 6.0377542072 4.1233704132 2.1886073153 0.4255433896 -1.8905324308
O 6.1262461993 6.0486449048 4.0279820914 -2.9060496159 -0.6218661611 2.5641171634
O 2.1023917325 8.0855326560 2.1230050382 -0.5073823339 0.1376461740 -0.7635679139
O 5.9920730431 0.0505658123 1.9468406565 0.1624700343 -0.5923407529 -0.1059442438
O 2.1396765126 4.0181237051 2.0065115382 -1.0668419004 0.0895588569 -0.2164124414
O 6.0777262058 4.0833571740 1.9949088714 0.7354654145 0.4244800316 0.2251035161
O 2.0556512586 0.1053413220 6.0290201934 -0.0064502620 -0.2462596820 1.0544687244
O 5.9644970414 8.0715426996 6.1808552326 -0.0480738408 -0.9011242592 1.1064985966
O 2.1124851635 4.0137507150 5.9940466177 -0.7080317881 0.2065611224 0.2912100248
O 6.0857218956 3.9673093441 6.1902709629 0.0378766338 0.4107341976 -0.2695255434
O 0.0424649754 2.0832225571 1.9693895064 -0.8893209014 -0.8040172815 -0.6286430702
O 3.9625857829 2.0546831605 1.9571366573 0.9125400507 -0.5993117330 0.8277718806
O 0.0276877491 6.1327531181 2.1265641658 -1.1077614723 1.2367401101 0.0816863377
O 4.1545333716 6.0506929840 1.9413948540 0.5299502924 0.1834555494 0.5107077259
O 7.9821392326 2.0349829143 6.0372711646 -0.9263963126 -0.8806880485 -0.0990764895
O 4.0336808518 1.9155630634 6.0607843985 1.1381446948 0.6990570181 -1.0730498535
O 7.9829702375 6.0129070684 6.0435115466 -0.9156360947 1.0555680373 0.6395699382
O 4.1211845668 6.1054978057 6.1761002871 -0.2503378109 0.0609847701 -1.1240359149
Ti 2.0281284178 2.0141503986 2.1044071338 0.0597783426 -0.5415980505 0.3940058115
Ti 6.0298283215 2.0565749274 2.0271550743 0.3859363863 -0.2531991982 0.6524897139
Ti 1.9673055137 6.0817795641 1.9683365367 0.8866409584 -0.1138951933 -0.5320765548
Ti 6.1869243555 6.1426178103 2.1424809708 -0.6883498980 0.3103494570 0.6324407536
Ti 2.0397380194 2.0406565868 6.0591039561 0.6921368085 -0.3361285846 -0.2089281346
Ti 6.0612219652 1.9708499193 5.9694336973 -0.4336261256 0.8414131677 -0.6055648185
Ti 1.9792509195 5.9909650069 6.1260609338 3.1197957848 0.3177005190 -0.0014374364
Ti 6.1586454800 6.0429350366 6.0826323314 -1.8535161687 -0.5199676480 -0.6867813137
40
Lattice="8.09698446 0 0 0 8.09698446 0 0 0 8.09698446" Properties=species:S:1:pos:R:3:force:R:3 energy=-29831.7458515 frame_id=supp_031 structure_id=extxyz total_charge=0 stress="-0.0370333933054 -0.000465797736256 -0.00116085217418 -0.000465797736256 -0.03240108372 -0.00107621994186 -0.00116085217418 -0.00107621994186 -0.0401949238402" phase_label=cubic
Ba 8.0262544165 8.0759548618 0.0137074482 1.4192536736 -0.1361216059 -0.2993016298
Ba 4.0481977859 0.0138774980 0.0579778350 -0.9470394789 -0.2114565955 -0.9067170687
Ba 0.0396958622 3.9803025574 0.0613673305 -0.4190776074 0.6624356384 -0.2982081085
Ba 4.0555341454 3.9779144443 0.0773274908 0.0249113105 0.4953496908 -0.6131596456
Ba 8.0065860228 0.0655486172 4.1139070994 1.6052515348 -0.2162012028 -0.3425086946
Ba 4.0586620613 0.0972528613 3.9750854261 -1.0407241824 -0.5225142452 1.2094803890
Ba 0.0399914484 4.1285714090 4.0753094812 -0.4207515334 -0.7510848994 -0.2652540942
Ba 4.0987118215 3.9659929564 4.0543650048 -0.1065898070 0.3229927264 0.2374337240
O 1.9714481791 2.0900984981 0.0537764309 0.1904936240 -0.7642104093 0.2892365604
O 6.0239738893 2.1036763000 8.0162516113 -0.9586697780 1.4483384337 0.3484927773
O 1.9384806255 6.1129303778 8.0497825533 -1.1574498698 0.3547043697 -1.0163090197
O 6.1386154557 6.1486590759 8.0353157865 0.6172998009 -1.0742711115 0.6798191440
O 2.0373308110 1.9953483073 4.1419110883 -0.1989144582 -3.0332521559 -0.8694561790
O 6.0752404399 1.9527198179 4.0368417589 -0.5749592171 1.7600846319 0.5126326207
O 2.0390986642 6.1236619248 4.0567179463 1.0049892610 1.9400650167 1.6044345607
O 6.1775834563 5.9988928739 3.9681602954 -1.3017700318 -0.9578180015 0.6962115884
O 2.0974710531 0.0418256755 1.9391908671 0.8766975291 -0.0617823603 -0.0886077286
O 6.0061959397 8.0163308606 2.0935782513 0.4732264563 -1.2615932400 1.5369569145
O 1.9451430497 4.0411229600 2.0373241824 0.5649583816 -0.4768623778 0.1507411287
O 6.0499911691 4.0398505088 2.0255993110 -0.3319660699 -0.1125412573 -0.3614718700
O 1.9344947361 0.1042461124 5.9975443080 -0.0055452932 0.5614074149 -1.8557713199
O 6.1456462426 0.0239402258 5.9714493219 0.4645444829 0.4489479378 -0.8638966542
O 2.0043078645 3.9617311448 6.0698650903 0.0176899579 -0.5644847376 -0.4000861555
O 6.0068227239 3.9663377465 6.1360992122 -0.5914098169 0.3955091413 0.3679053308
O 0.1044663774 1.9796608961 1.9213557448 -0.3942298831 0.1706686296 0.5495207218
O 4.0743919757 1.9612390494 2.0994083767 0.6272248740 0.9997173519 -0.7276109365
O 0.0592965100 6.0045296559 1.9654296945 0.8449615610 0.5646191686 0.3100317697
O 4.0029614787 6.1439264707 2.1145471362 0.0837712668 -0.5105657822 -0.1902541571
O 0.0926385773 2.0173511208 6.0502990248 0.8211043252 -0.7647999571 0.6816685517
O 4.0875491821 2.1071642035 6.0368306364 -0.5373351318 -1.2069800578 0.5511646549
O 0.1044715756 6.1641569508 5.9708666908 -0.0547596470 2.1647501402 -0.1241506669
O 4.0253131341 5.9828845426 6.1455286076 0.9638739469 0.5983077180 -0.7367976996
Ti 1.9902480239 1.9756100175 2.0596905831 -1.9368316812 -0.1157388907 0.7599373580
Ti 6.1020231774 1.9527993065 2.0032379180 0.9453287252 0.4148949013 -0.6336019683
Ti 2.0046579565 6.0041917141 2.0729478478 -0.1013500969 0.5448080553 0.4871157746
Ti 5.9802448995 6.0980843029 2.0627623515 1.0361093502 -0.6612444996 -0.6363470211
Ti 2.0301694986 2.1216555624 6.1530132007 -1.6731749068 0.4289178678 0.2761421233
Ti 6.1004757253 2.0346632674 6.0419285827 0.2786755818 -0.6656303519 0.3506761192
Ti 1.9551217369 5.9919354048 5.9940992111 -1.4576974546 -0.8145076197 0.2232782535
Ti 6.0662125872 6.1790801991 6.0923040022 1.3498803020 0.6071425247 -0.5933694477
40
Lattice="8.09698446 0 0 0 8.09698446 0 0 0 8.09698446" Properties=species:S:1:pos:R:3:force:R:3 energy=-29831.7234277 frame_id=supp_032 structure_id=extxyz total_charge=0 stress="-0.0284388517655 0.00135425048116 -0.00129008742597 0.00135425048116 -0.0367412225805 0.00013172016457 -0.00129008742597 0.00013172016457 -0.0359890159608" phase_label=cubic
Ba 0.0103646224 8.0625262113 0.0454860996 -0.1906305899 0.2557092893 -0.7457963051
Ba 4.0158133756 8.0416769929 8.0177569436 0.6358267231 0.4862518140 0.3571543765
Ba 0.1100070948 4.0395021350 7.9911699583 -0.8766140652 0.3589891100 0.9536673244
Ba 3.9440597000 4.0004626526 0.0281333245 1.0394658801 0.2967277408 0.3902088139
Ba 7.9992079072 0.0380110695 3.9910054752 0.4511470676 -0.7361190035 0.7462616048
Ba 3.9591683215 0.0196504563 3.9906497384 0.7938992959 -0.2276584749 0.4610655621
Ba 8.0510916373 4.0139398639 4.0211662598 0.7054426563 0.8829664096 -0.0481904317
Ba 4.0513379656 4.0470512241 4.1499216246 -0.1366791284 0.4550539733 -1.1206264872
O 1.9450591178 2.0736421831 0.0369705778 1.2224731636 0.9533371930 0.2534387977
O 5.9756890136 1.9784577752 8.0785793623 -1.7807947996 -0.5961157270 -2.2048571583
O 2.0554818885 5.9748122922 7.9980593919 -0.1124237942 -1.8413860110 -0.2656604646
O 6.0620332065 6.0199666071 0.0590107899 -0.3969419807 0.4661733090 -0.0321447740
O 2.0842958360 2.0919974554 3.9932238671 -0.4133057386 -1.7121993849 -0.2152699991
O 6.1216827317 1.9868443561 4.0309479346 0.1291842121 -2.1428331352 2.2821759421
O 1.9968005043 6.1286198210 4.1069116581 -1.0195093158 1.1135750628 0.6939300901
O 5.9709124311 6.1512125924 4.1118123038 -0.3211296257 0.6555558791 -1.1757111171
O 2.0469527392 8.0422830226 2.1241683910 0.6812474395 -0.2424601475 -0.6511331201
O 5.9696904622 8.0796218301 2.0580350389 0.1835721583 0.3079105204 0.2392974243
O 2.1431746239 4.1694371252 1.9729685113 0.4266080094 1.1506417435 1.2117709264
O 6.1144012011 3.9732018061 1.9340471366 0.1104122565 0.4297013803 0.4858336563
O 2.0692597263 0.0218988616 6.1063660253 -1.0338502729 0.1859042578 0.2103601995
O 6.0166512359 0.1061636843 6.0144019969 -0.0670419132 0.9007322922 0.1114636584
O 1.9416868135 4.1367498572 6.1253041125 0.1818456883 -0.3649926548 -0.0986869592
O 6.1772060332 4.1408378465 6.1037090063 1.1342341948 -0.8201001968 -0.4674662858
O 0.0164477982 2.1211372912 1.9640887331 -0.5298916765 0.9429113242 -0.8527254093
O 4.0535726407 1.9419947354 2.0817117883 1.1911194130 -0.1727660747 -0.2088723357
O 0.1181479761 5.9845669734 1.9725684174 -0.7190448448 -2.0917794339 0.6215064700
O 3.9951001934 6.0097713585 2.0757153134 -0.1892664909 1.0185064932 0.8865948041
O 7.9820786760 1.9592450620 6.1878155834 -0.2814535065 0.3741217352 -0.1197716628
O 3.9499893248 1.9484589883 6.0157648456 0.2038654930 -0.5336337982 0.3413881594
O 0.0823400050 6.0597103445 6.1896705190 0.8417595394 -2.2132532029 -0.8714769556
O 4.1488896445 5.9740994190 6.0799649915 -0.3794447287 -0.9752178583 -0.4918641853
Ti 1.9294694895 2.0941201185 2.0620939368 0.3792422923 -0.6896568504 0.6307045551
Ti 6.0475293149 2.0046600644 2.0589811855 0.2698373692 0.6405240834 -0.2387088841
Ti 2.1336793888 6.1845596558 1.9820952860 -2.1428861275 0.4143341818 0.3895187680
Ti 6.1816884014 5.9692382255 1.9635080475 0.6444777860 0.3536674002 -0.3085507308
Ti 2.1458338951 2.1259030090 6.1365441026 0.5816626136 0.6011624017 -0.9975771894
Ti 6.1772629263 2.0922234746 5.9827793152 -0.3492162663 1.2986666209 0.3257536457
Ti 2.0071696654 6.0852899592 5.9955409033 -0.6970221749 0.5283927723 -0.7596238218
Ti 6.0414772106 6.0461427990 6.1010407031 -0.1701762117 0.2886549661 0.2826194984
40
Lattice="8.09698446 0 0 0 8.09698446 0 0 0 8.09698446" Properties=species:S:1:pos:R:3:force:R:3 energy=-29832.0435198 frame_id=supp_033 structure_id=extxyz total_charge=0 stress="-0.0399045054282 6.74970888385e-05 0.000289890801453 6.74970888385e-05 -0.0361603640707 0.00113752192531 0.000289890801453 0.00113752192531 -0.0381362134414" phase_label=cubic
Ba 8.0881640150 7.9873569190 8.0255463563 -0.4033288063 0.8497336869 0.2947279840
Ba 4.0482536112 0.0215527996 8.0923788331 0.5106468412 -0.5411044299 0.2579833037
Ba 0.0328978769 4.0079015038 0.0293194108 0.3351580892 0.2022498811 -0.5149868393
Ba 4.1167179822 4.0676009892 0.0157786810 -0.7383679670 0.4383527958 -0.0201417953
Ba 8.0410427583 8.0515569740 4.0016763645 0.0430422791 0.6247557364 0.7570441229
Ba 4.0460463022 0.0321582954 4.0719484512 0.5058548863 -0.2282341039 -0.2050443595
Ba 0.0101382020 3.9524198337 4.0418152904 0.2779090175 0.3130625485 0.5411231404
Ba 4.0058422957 4.0937264090 3.9543864560 -0.1828695037 -0.1540140092 0.6743612665
O 2.0254586486 1.9477634881 8.0283010016 0.0109707528 1.8269318222 0.9506649534
O 5.9917060023 2.0203988577 8.0129145025 0.5893045186 -2.4380339566 1.8667350284
O 2.0263730790 6.0873667869 0.0859756949 0.5265675649 -2.5730133654 1.0418035098
O 6.0220532469 6.0854631299 0.0277735613 -0.8603475263 1.8423251829 -0.0681986474
O 2.0237870410 2.0185663416 4.0758465460 -1.4244726074 0.3454942597 -1.0322956665
O 6.1615672984 2.0274308114 4.1218647392 1.6288641799 0.1556179454 -2.4816927485
O 1.9949820637 6.0229439689 3.9560819420 -0.8783697782 -0.6188341808 -0.7969114482
O 6.0564999991 6.1573412461 4.1137305601 -0.3416958547 -0.0751526431 -0.3830608913
O 1.9819333539 0.0806273351 1.9455540566 0.2878109115 0.4821209229 0.4634037571
O 6.1621851458 0.0308326454 2.0964405784 0.2509720797 0.5373116496 2.0016141285
O 1.9262553489 4.1027631611 2.0854025747 0.2459871502 0.1291847994 -1.8124103139
O 6.0185595827 4.1313313580 2.1118380603 0.5411678537 -0.4284416719 0.0409078593
O 2.0382540804 0.0633414497 5.9989199747 0.0524978201 -0.2889951016 -0.8573722391
O 6.0875504813 8.0170705058 6.1491388078 -0.6678670064 0.0162369996 -1.3853729786
O 1.9613852246 4.0142441188 5.9860966350 0.3069954240 1.0143013430 0.5014012102
O 6.0394889699 4.1032331726 5.9768930083 0.4673445352 -0.4246906812 -1.0931770641
O 8.0956226711 2.0923878043 1.9692258647 -0.0592517097 -0.8192694431 0.3495091115
O 4.0041963790 1.9649462225 2.1048812298 -0.3581228692 0.8072475937 -0.7235140376
O 0.0154613700 6.0192325635 2.0521355179 0.7273566158 -0.3354195146 -0.8985611789
O 4.0883171232 6.0431898613 1.9751171561 0.3430502259 -1.5903466900 -0.6095626115
O 8.0575287160 2.0898964019 6.0118061610 0.0882474535 -1.3186503898 0.5373569136
O 4.1128503002 1.9339509917 6.0163139819 0.0860376088 0.6455211948 -0.0850410411
O 0.0870320846 6.0852319688 6.1623326973 0.9357856916 0.8176764512 0.9221979461
O 4.1373757929 6.1021891918 6.0040888320 -0.0460230770 -0.3848688948 0.9711883973
Ti 2.0551932170 1.9171469854 2.0031874984 -1.0111421707 -0.1474411719 -0.1902516395
Ti 6.1174409546 2.1066242966 1.9723039154 0.2908855087 0.5149809873 -0.8399259445
Ti 2.0019439206 6.1530152213 2.0440233180 -0.6682188425 0.5459017972 -0.3195657745
Ti 6.1402142062 6.0016518222 2.1020318296 -0.3538428396 0.4947829350 0.3452075949
Ti 2.0655719218 2.0073601645 6.0982589966 0.3621458142 -0.5615603299 0.9316083451
Ti 5.9982341709 2.0342780141 6.1429167972 -0.7020266953 0.5259699093 0.4205574833
Ti 2.0184349640 6.0938029871 6.1576100191 0.8584474047 -0.0440244902 -0.2685803806
Ti 6.0371287981 6.0728081420 6.1178332984 -1.5771029729 -0.1576653739 0.7162715435
40
Lattice="8.09698446 0 0 0 8.09698446 0 0 0 8.09698446" Properties=species:S:1:pos:R:3:force:R:3 energy=-29831.4716496 frame_id=supp_034 structure_id=extxyz total_charge=0 stress="-0.0324214253532 0.0013473869803 -0.000977635017925 0.0013473869803 -0.0387566506396 0.00175633232078 -0.000977635017925 0.00175633232078 -0.0364329351979" phase_label=cubic
Ba 0.0634459025 8.0738524123 8.0475153208 0.0023058253 0.3238761805 -0.2639625696
Ba 4.0427677801 8.0050584144 8.0116266515 -0.4297133718 0.4287814390 0.6809893816
Ba 8.0177026553 4.1070967631 0.1074747695 0.7264586395 -0.6696200647 -0.8354464937
Ba 4.1852969629 4.1211270744 0.0483593916 -1.3610735215 -0.6546820499 0.4894847826
Ba 0.0007381774 8.0837260045 3.9412030814 0.2989266916 0.4840433368 1.0672092160
Ba 4.0246749960 0.0066389957 3.9669000267 -0.3681722297 0.1479065137 0.1568656170
Ba 0.0191618659 4.1626473109 4.0483788502 -0.2016618631 -1.3935826790 0.0519613398
Ba 4.0451622858 4.1417756403 4.1451851790 -0.1776054289 -0.8409837823 -1.3013896792
O 2.0035626414 2.1252275657 8.0895516972 0.9221365218 0.4053939899 -1.3605921848
O 6.0803155227 2.1052802646 0.1090484657 -1.5492438510 1.3599572696 1.1635329437
O 2.0580927988 5.9617032739 0.0588779694 3.2547963098 -0.8734742877 0.2045679401
O 5.9758746587 5.9881548934 0.0560469293 -2.2298666490 -0.2001699113 -2.1664413808
O 2.0732544719 1.9938130691 4.0262097305 -0.2368962211 -0.8046313039 1.5416893244
O 6.1906683232 1.9162844884 4.0602888204 0.1089413332 0.0213227495 -1.5629328726
O 2.0428465116 6.1717116880 4.1051883248 -0.1861466353 1.7032779343 -0.7175361945
O 6.0187460477 6.1152432861 3.9313153728 -0.2503306662 0.0793305071 1.5076566784
O 1.9929308299 0.0927628343 2.0817456782 0.1341038296 -0.5998292914 -0.1699920785
O 5.9986767589 7.9984188452 1.9939814938 0.2698259319 -1.1108861934 -1.7703558785
O 2.0052391127 4.0712469140 2.0880350772 -0.8518732769 0.7121172179 -0.1155971170
O 6.1034023322 3.9584084662 1.9504844867 1.1425875471 0.8460041652 -0.8031537767
O 2.0268148901 8.0224821158 6.1351475463 -0.3978977958 0.5408558343 1.4151942430
O 6.0495372794 8.0383816999 6.0418255372 -0.4366160546 0.4879827611 0.1697017447
O 2.0947170667 4.0307674699 6.1703582091 -0.0818267126 -0.8794683508 -0.5213216371
O 6.1569921944 4.1225635816 6.1411948158 0.2416374815 -0.5275812113 1.7461698464
O 0.1125399618 2.1170726564 1.9322616204 -0.4013243841 -0.8421272379 -0.5813145047
O 4.0617765060 2.0604603922 1.9348956435 1.1023160683 0.9213322928 -0.1083722122
O 0.0065838359 5.9950921814 2.0818896050 0.0032404066 0.8901393167 0.3247531361
O 3.9824232186 6.1584602653 1.9256754964 0.0607181600 1.0604937889 1.2170059898
O 8.0647532574 2.0982179222 6.1667455228 -0.2035837235 0.6532345356 0.0845657638
O 4.1036193709 2.0116842165 6.0956366041 0.3545680768 -0.1699727924 0.5094284066
O 0.1097385660 5.9957502992 5.9674123675 -0.1953634049 -0.4340120398 -0.9947863452
O 4.0003706620 6.0525296694 6.0580980327 -0.6818639009 -0.1248145840 -0.7690115630
Ti 1.9599035829 2.0307904642 1.9990132385 -1.1857326507 -0.8480862718 0.5536456124
Ti 6.0596590671 1.9060472461 1.9728528305 1.0725240994 -0.4755624115 0.6126715654
Ti 1.9272960820 6.0650475617 2.0083982288 -0.5434387697 0.7771610862 -0.2354154079
Ti 6.1543409390 6.0367296877 2.0800136526 -0.0603607399 -0.5386050658 0.9274901931
Ti 1.9420297372 2.1082864519 5.9939231454 0.7092857557 -0.3868114981 -0.4581419563
Ti 6.0119891496 2.0230019905 6.1685677749 0.8890413367 0.2776910376 -0.0944787012
Ti 1.9826885167 5.9843749649 6.1175661837 -1.1057060030 0.3637837004 0.6073486627
Ti 5.9953857608 6.0757390786 5.9838113683 1.8428838394 -0.1097846303 -0.2016898341
40
Lattice="8.09698446 0 0 0 8.09698446 0 0 0 8.09698446" Properties=species:S:1:pos:R:3:force:R:3 energy=-29832.8012946 frame_id=supp_035 structure_id=extxyz total_charge=0 stress="-0.0390613345916 -0.000327751661556 0.000462720936923 -0.000327751661556 -0.0415943557374 0.000242412425233 0.000462720936923 0.000242412425233 -0.0411774901059" phase_label=cubic
Ba 0.0854891300 8.0695123858 0.0175182183 -0.3871064484 -0.2551277394 -0.0794714110
Ba 4.1254097634 0.0616702911 0.0156736146 -0.5854529248 -1.4699854168 -0.3742338840
Ba 0.0011333670 3.9538533372 8.0872128025 -0.2349300280 0.7365135450 0.1353393440
Ba 4.0411423602 3.9882722822 8.0867029307 0.1960230617 1.3025213159 -0.3242552785
Ba 8.0289904803 0.0616021703 4.0121067139 0.5151882876 0.0314683558 0.2297878093
Ba 3.9971375175 0.0613944434 4.0827040225 0.1742683799 -0.7362313674 0.0752272086
Ba 8.0741060402 4.0771769599 4.0506050861 -0.0862418684 -0.5705095555 -0.1294847068
Ba 4.0152264392 4.0439974883 4.0117514142 0.3993628701 0.1780978400 0.4341148981
O 2.1076529571 2.0104157936 0.0342230049 -0.7953035235 -0.0073224428 -0.5381846452
O 5.9981034894 2.0028135513 8.0663731726 0.8949868572 1.0966726714 0.3389024574
O 2.0550821511 6.0801191734 0.0580904955 0.8315680899 0.4180090086 -1.7485415451
O 6.0331922942 6.0361314657 8.0816576760 -1.1390675789 -1.1529278336 -2.0848444999
O 2.0368000849 1.9633020655 4.0874167898 -0.5661760271 -0.1569259829 -0.0227570760
O 6.0421776963 2.0204301316 4.0190710594 -0.1995034380 0.6450397517 -0.1581771458
O 2.1125031640 6.0722538125 4.1060166373 1.5528401118 -0.1171808991 0.9250209760
O 6.1180947049 6.1305632049 4.1317711389 -1.4362717880 -0.3037093872 2.0226333534
O 2.0731023209 8.0109805492 2.0015713816 -0.5162271875 -0.1809981774 -0.2253523720
O 6.1269194672 0.0452248771 2.0687600890 0.5437115308 -0.0056194626 0.7568580233
O 2.0330134813 4.0727337364 1.9449129800 -0.2231680761 -0.1006900632 0.4086339336
O 6.0323924236 4.0490811666 1.9248923675 0.4462022254 0.4625011576 0.6777315571
O 1.9483957565 8.0507187062 6.1412043177 0.0261877323 0.3490644273 0.0288904118
O 6.0554455380 0.0381288681 6.1540911775 0.0858304157 -0.0821591440 -0.0937039317
O 2.0156851328 4.1110073658 6.1311166338 -0.8908060025 -0.1477533344 -0.9456212842
O 5.9973024271 4.0076288111 6.0369533183 0.1524879372 -0.1692315773 -0.7003139593
O 0.0185696662 2.0689868647 2.0090241546 -0.2088341801 1.2405432341 0.5064872112
O 4.0000256432 2.1000920400 1.9170031194 -0.4600823316 0.3604308311 -0.3021373637
O 8.0243533825 6.1068949845 1.9711036101 -0.0930730589 -0.0401018912 0.9474951314
O 4.1464958112 6.0940290557 2.0929759143 0.3907401151 0.2387665932 0.8968425486
O 0.0313524648 2.0035537102 6.1481982727 0.3174105371 1.3532182662 -0.3551752833
O 4.1074664981 2.0743582809 6.0892818254 0.3640774866 -0.4263343090 -0.7252245744
O 0.0241291512 6.0422968924 6.0826763592 -0.1326322034 -1.0390515148 -0.4062160717
O 4.0077117345 6.1441718474 6.0544926111 0.6744903754 0.1006479076 -0.1269902089
Ti 2.0722890245 1.9731148467 2.0036492895 0.1901585960 -0.3942176088 0.0088776775
Ti 6.0240899727 1.9372673670 1.9633688225 0.2593445010 -0.6915856987 0.9370753772
Ti 2.0739967968 6.0144564412 2.0807253162 0.6313752814 -0.2237991980 0.8602598846
Ti 6.1429536416 6.0539360059 2.0089770279 -0.8316179044 0.0190192491 0.2065589093
Ti 1.9717952692 1.9886947511 6.0848801529 0.7001765034 0.2069111844 -0.4093603982
Ti 5.9973178946 2.0318908954 6.0655165866 -0.6975305964 -0.5432745766 -0.2418202804
Ti 1.9491218597 6.0571882595 6.0531998863 -0.5584132982 0.1832719458 -0.2339929552
Ti 6.0965377420 6.1327598603 5.9622192087 0.6960075685 -0.1079601041 -0.1708778369
40
Lattice="8.09698446 0 0 0 8.09698446 0 0 0 8.09698446" Properties=species:S:1:pos:R:3:force:R:3 energy=-29831.8131011 frame_id=supp_036 structure_id=extxyz total_charge=0 stress="-0.0374883061106 0.000228836263568 -0.0010989092956 0.000228836263568 -0.0414693278631 0.000753351551 -0.0010989092956 0.000753351551 -0.0416408523418" phase_label=cubic
Ba 0.0521757408 0.0672875770 8.0317499292 -0.7373550078 -0.2884213729 0.5393002646
Ba 4.1099644477 0.0156507000 0.1123830355 0.1967383943 0.1794887238 -0.7043106614
Ba 8.0525415050 4.0185855127 8.0460192331 0.2872865887 0.3777172117 0.0899710641
Ba 4.0193375147 4.0501673723 0.0927412182 0.0128446147 -0.0543457640 -0.9691865341
Ba 8.0523548543 8.0625145772 4.1620872432 0.1707226113 0.0510281829 -0.7912045013
Ba 4.0537692489 0.0458955978 4.1031410995 0.0358450043 -0.4447011103 -0.0370529380
Ba 8.0719623627 4.0744594148 3.9377633516 0.5776155019 0.1428191530 0.8939480838
Ba 4.1086442820 3.9645836490 3.9597810995 -0.8715549173 1.1136291400 0.9321057199
O 2.1140953987 2.0688042706 7.9981369476 -2.5536789043 1.0571866222 0.5121964868
O 6.1684370680 2.0075636625 8.0510426062 2.3550412493 -1.7117232352 -0.4848677636
O 1.9199879499 6.0474030504 0.1118573443 0.0150710784 -1.4832186996 0.7792578504
O 6.0921773421 5.9928325888 8.0483327440 0.2961158891 1.7223183879 0.6397775432
O 1.9465500128 1.9695196708 4.0748600155 0.2337904716 -0.2611170048 0.0720695023
O 6.1665142313 1.9950293551 4.0217415055 -0.1097812959 0.1225193688 1.0530628768
O 2.1228778336 6.0798458156 4.0692926549 -1.6203485615 -0.8794205914 -1.3705042673
O 6.0068045231 6.1162954472 3.9857388147 2.7408329624 -0.4447368513 0.1182740273
O 2.0469056612 8.0946201323 2.1138253888 -0.4577788121 -0.3948753128 1.0652066166
O 6.1047843816 8.0838783668 2.0703376265 -0.8962217177 0.1814296115 1.1224959719
O 2.0587541581 4.0881365173 1.9536798369 0.6263149366 0.7848497840 -1.5285525625
O 6.0990519904 4.0250390791 1.9526682594 -0.2710886592 0.6020411556 -0.2924684468
O 1.9778937058 0.0599338801 6.0554739161 0.8113489045 0.6368225807 0.1717430287
O 6.1504415978 0.0803802468 6.0534807499 -0.9552030398 0.5746596414 -0.9068043892
O 1.9184895833 4.1567375542 6.0518979887 -0.0570877741 0.1955391165 -0.2795177492
O 6.0290377717 4.0168524818 6.0308726335 -0.2950408496 -0.5314408181 -0.0050037226
O 0.0666420986 2.1078746891 2.1233656208 -0.0077246551 0.1657323861 -0.7659759924
O 3.9700701897 1.9445335714 2.0412128359 -0.3895507738 0.0251353726 -0.6215925523
O 8.0379412555 5.9969654285 2.0874964189 0.1568804475 -0.3418477244 0.6121768969
O 4.0946547667 6.0080808261 1.9217991608 -0.7389228887 -0.8943630937 0.4783922862
O 8.0505441916 1.9619387918 6.1453853762 0.5151536462 -1.3442797948 0.4692564507
O 4.0734653271 1.9938726109 6.1099323972 -1.0478733401 -1.4269300560 0.1327995543
O 8.0006648608 5.9955399126 5.9568469469 0.7615875428 -0.6577103455 0.1793326871
O 4.1005251920 5.9593038956 6.0515347707 0.0143189654 -0.1898612652 -0.1884613074
Ti 2.0224230870 1.9510708569 1.9934222806 0.6448470940 -0.6070138554 -1.0329306670
Ti 5.9354997460 2.1326079777 2.0804914657 1.5030175401 0.5797196926 0.1042952419
Ti 2.0568821027 6.1163002428 2.0531466706 0.2988769023 0.4238441105 -0.2853376219
Ti 6.1078381882 6.0693371756 2.0285052926 -0.6037968776 0.4401355422 0.3143129392
Ti 2.0430546781 2.1038928078 6.0316048739 0.7186198856 0.7391848826 -0.5359006659
Ti 6.1227957963 2.0789061962 6.0596075218 -0.7054119460 0.3122921153 -0.6377609401
Ti 2.0669157943 6.1273250944 6.1660440906 0.8163417635 0.6871628921 0.6516852220
Ti 5.9401876802 6.1131381422 6.0973726946 -1.4707919739 0.8407512211 0.5057729682
40
Lattice="8.09698446 0 0 0 8.09698446 0 0 0 8.09698446" Properties=species:S:1:pos:R:3:force:R:3 energy=-29834.1061458 frame_id=supp_037 structure_id=extxyz total_charge=0 stress="-0.0492920174869 0 0 0 -0.0492920174869 0 0 0 -0.0454246291053" phase_label=cubic
Ba 0.0000000000 0.0000000000 0.0000000000 0.0000000000 0.0000000000 0.1483158064
Ba 4.0484922300 0.0000000000 0.0000000000 0.0000000000 0.0000000000 0.1483158063
Ba 0.0000000000 4.0484922300 0.0000000000 0.0000000000 0.0000000000 0.1483158063
Ba 4.0484922300 4.0484922300 0.0000000000 0.0000000000 0.0000000000 0.1483158062
Ba 0.0000000000 0.0000000000 4.0484922300 0.0000000000 0.0000000000 0.1483158072
Ba 4.0484922300 0.0000000000 4.0484922300 0.0000000000 0.0000000000 0.1483158073
Ba 0.0000000000 4.0484922300 4.0484922300 0.0000000000 0.0000000000 0.1483158073
Ba 4.0484922300 4.0484922300 4.0484922300 0.0000000000 0.0000000000 0.1483158074
O 2.0242461150 2.0242461150 8.0759844600 0.0000000000 0.0000000000 0.1883365628
O 6.0727383450 2.0242461150 8.0759844600 0.0000000000 0.0000000000 0.1883365628
O 2.0242461150 6.0727383450 8.0759844600 0.0000000000 0.0000000000 0.1883365628
O 6.0727383450 6.0727383450 8.0759844600 0.0000000000 0.0000000000 0.1883365628
O 2.0242461150 2.0242461150 4.0274922300 0.0000000000 0.0000000000 0.1883365568
O 6.0727383450 2.0242461150 4.0274922300 0.0000000000 0.0000000000 0.1883365568
O 2.0242461150 6.0727383450 4.0274922300 0.0000000000 0.0000000000 0.1883365568
O 6.0727383450 6.0727383450 4.0274922300 0.0000000000 0.0000000000 0.1883365568
O 2.0242461150 0.0000000000 2.0032461150 0.0000000000 0.0000000000 -0.5360919257
O 6.0727383450 0.0000000000 2.0032461150 0.0000000000 0.0000000000 -0.5360919257
O 2.0242461150 4.0484922300 2.0032461150 0.0000000000 0.0000000000 -0.5360919257
O 6.0727383450 4.0484922300 2.0032461150 0.0000000000 0.0000000000 -0.5360919257
O 2.0242461150 0.0000000000 6.0517383450 0.0000000000 0.0000000000 -0.5360919180
O 6.0727383450 0.0000000000 6.0517383450 0.0000000000 0.0000000000 -0.5360919180
O 2.0242461150 4.0484922300 6.0517383450 0.0000000000 0.0000000000 -0.5360919180
O 6.0727383450 4.0484922300 6.0517383450 0.0000000000 0.0000000000 -0.5360919180
O 0.0000000000 2.0242461150 2.0032461150 0.0000000000 0.0000000000 0.0997197783
O 4.0484922300 2.0242461150 2.0032461150 0.0000000000 0.0000000000 0.0997197783
O 0.0000000000 6.0727383450 2.0032461150 0.0000000000 0.0000000000 0.0997197783
O 4.0484922300 6.0727383450 2.0032461150 0.0000000000 0.0000000000 0.0997197783
O 0.0000000000 2.0242461150 6.0517383450 0.0000000000 0.0000000000 0.0997197769
O 4.0484922300 2.0242461150 6.0517383450 0.0000000000 0.0000000000 0.0997197769
O 0.0000000000 6.0727383450 6.0517383450 0.0000000000 0.0000000000 0.0997197769
O 4.0484922300 6.0727383450 6.0517383450 0.0000000000 0.0000000000 0.0997197769
Ti 2.0242461150 2.0242461150 2.0842461150 0.0000000000 0.0000000000 0.0997197783
Ti 6.0727383450 2.0242461150 2.0842461150 0.0000000000 0.0000000000 0.0997197783
Ti 2.0242461150 6.0727383450 2.0842461150 0.0000000000 0.0000000000 0.0997197783
Ti 6.0727383450 6.0727383450 2.0842461150 0.0000000000 0.0000000000 0.0997197783
Ti 2.0242461150 2.0242461150 6.1327383450 0.0000000000 0.0000000000 0.0997197769
Ti 6.0727383450 2.0242461150 6.1327383450 0.0000000000 0.0000000000 0.0997197769
Ti 2.0242461150 6.0727383450 6.1327383450 0.0000000000 0.0000000000 0.0997197769
Ti 6.0727383450 6.0727383450 6.1327383450 0.0000000000 0.0000000000 0.0997197769
40
Lattice="8.09698446 0 0 0 8.09698446 0 0 0 8.09698446" Properties=species:S:1:pos:R:3:force:R:3 energy=-29834.191683 frame_id=supp_038 structure_id=extxyz total_charge=0 stress="-0.0482182995198 0 0 0 -0.0482182995198 0 0 0 -0.0370175474747" phase_label=cubic
Ba 0.0000000000 0.0000000000 0.0000000000 0.0000000000 0.0000000000 0.2527002459
Ba 4.0484922300 0.0000000000 0.0000000000 0.0000000000 0.0000000000 0.2527002459
Ba 0.0000000000 4.0484922300 0.0000000000 0.0000000000 0.0000000000 0.2527002459
Ba 4.0484922300 4.0484922300 0.0000000000 0.0000000000 0.0000000000 0.2527002459
Ba 0.0000000000 0.0000000000 4.0484922300 0.0000000000 0.0000000000 0.2527002484
Ba 4.0484922300 0.0000000000 4.0484922300 0.0000000000 0.0000000000 0.2527002483
Ba 0.0000000000 4.0484922300 4.0484922300 0.0000000000 0.0000000000 0.2527002483
Ba 4.0484922300 4.0484922300 4.0484922300 0.0000000000 0.0000000000 0.2527002483
O 2.0242461150 2.0242461150 8.0619844600 0.0000000000 0.0000000000 0.0601525623
O 6.0727383450 2.0242461150 8.0619844600 0.0000000000 0.0000000000 0.0601525623
O 2.0242461150 6.0727383450 8.0619844600 0.0000000000 0.0000000000 0.0601525623
O 6.0727383450 6.0727383450 8.0619844600 0.0000000000 0.0000000000 0.0601525623
O 2.0242461150 2.0242461150 4.0134922300 0.0000000000 0.0000000000 0.0601525517
O 6.0727383450 2.0242461150 4.0134922300 0.0000000000 0.0000000000 0.0601525517
O 2.0242461150 6.0727383450 4.0134922300 0.0000000000 0.0000000000 0.0601525517
O 6.0727383450 6.0727383450 4.0134922300 0.0000000000 0.0000000000 0.0601525517
O 2.0242461150 0.0000000000 1.9892461150 0.0000000000 0.0000000000 -0.6915887285
O 6.0727383450 0.0000000000 1.9892461150 0.0000000000 0.0000000000 -0.6915887285
O 2.0242461150 4.0484922300 1.9892461150 0.0000000000 0.0000000000 -0.6915887285
O 6.0727383450 4.0484922300 1.9892461150 0.0000000000 0.0000000000 -0.6915887285
O 2.0242461150 0.0000000000 6.0377383450 0.0000000000 0.0000000000 -0.6915887184
O 6.0727383450 0.0000000000 6.0377383450 0.0000000000 0.0000000000 -0.6915887184
O 2.0242461150 4.0484922300 6.0377383450 0.0000000000 0.0000000000 -0.6915887184
O 6.0727383450 4.0484922300 6.0377383450 0.0000000000 0.0000000000 -0.6915887184
O 0.0000000000 2.0242461150 1.9892461150 0.0000000000 0.0000000000 0.1893679608
O 4.0484922300 2.0242461150 1.9892461150 0.0000000000 0.0000000000 0.1893679608
O 0.0000000000 6.0727383450 1.9892461150 0.0000000000 0.0000000000 0.1893679608
O 4.0484922300 6.0727383450 1.9892461150 0.0000000000 0.0000000000 0.1893679608
O 0.0000000000 2.0242461150 6.0377383450 0.0000000000 0.0000000000 0.1893679585
O 4.0484922300 2.0242461150 6.0377383450 0.0000000000 0.0000000000 0.1893679585
O 0.0000000000 6.0727383450 6.0377383450 0.0000000000 0.0000000000 0.1893679585
O 4.0484922300 6.0727383450 6.0377383450 0.0000000000 0.0000000000 0.1893679585
Ti 2.0242461150 2.0242461150 2.1242461150 0.0000000000 0.0000000000 0.1893679608
Ti 6.0727383450 2.0242461150 2.1242461150 0.0000000000 0.0000000000 0.1893679608
Ti 2.0242461150 6.0727383450 2.1242461150 0.0000000000 0.0000000000 0.1893679608
Ti 6.0727383450 6.0727383450 2.1242461150 0.0000000000 0.0000000000 0.1893679608
Ti 2.0242461150 2.0242461150 6.1727383450 0.0000000000 0.0000000000 0.1893679585
Ti 6.0727383450 2.0242461150 6.1727383450 0.0000000000 0.0000000000 0.1893679585
Ti 2.0242461150 6.0727383450 6.1727383450 0.0000000000 0.0000000000 0.1893679585
Ti 6.0727383450 6.0727383450 6.1727383450 0.0000000000 0.0000000000 0.1893679585
40
Lattice="7.9755296931 0 0 0 7.9755296931 0 0 0 7.9755296931" Properties=species:S:1:pos:R:3:force:R:3 energy=-29834.7406346 frame_id=supp_039 structure_id=extxyz total_charge=0 stress="-0.00431326673349 0 0 0 -0.00431326673349 -0 0 0 0.00485635743231" phase_label=cubic
Ba 0.0000000000 0.0000000000 0.0000000000 0.0000000000 0.0000000000 0.2050897966
Ba 3.9877648466 0.0000000000 0.0000000000 0.0000000000 0.0000000000 0.2050897947
Ba 0.0000000000 3.9877648466 0.0000000000 0.0000000000 0.0000000000 0.2050897947
Ba 3.9877648466 3.9877648466 0.0000000000 0.0000000000 0.0000000000 0.2050897928
Ba 0.0000000000 0.0000000000 3.9877648466 0.0000000000 0.0000000000 0.2050896589
Ba 3.9877648466 0.0000000000 3.9877648466 0.0000000000 0.0000000000 0.2050896570
Ba 0.0000000000 3.9877648466 3.9877648466 0.0000000000 0.0000000000 0.2050896570
Ba 3.9877648466 3.9877648466 3.9877648466 0.0000000000 0.0000000000 0.2050896551
O 1.9938824233 1.9938824233 7.9475296931 0.0000000000 0.0000000000 -0.0498225434
O 5.9816472698 1.9938824233 7.9475296931 0.0000000000 0.0000000000 -0.0498225434
O 1.9938824233 5.9816472698 7.9475296931 0.0000000000 0.0000000000 -0.0498225434
O 5.9816472698 5.9816472698 7.9475296931 0.0000000000 0.0000000000 -0.0498225434
O 1.9938824233 1.9938824233 3.9597648466 0.0000000000 0.0000000000 -0.0498218391
O 5.9816472698 1.9938824233 3.9597648466 0.0000000000 0.0000000000 -0.0498218391
O 1.9938824233 5.9816472698 3.9597648466 0.0000000000 0.0000000000 -0.0498218391
O 5.9816472698 5.9816472698 3.9597648466 0.0000000000 0.0000000000 -0.0498218391
O 1.9938824233 0.0000000000 1.9658824233 0.0000000000 0.0000000000 -0.3948030804
O 5.9816472698 0.0000000000 1.9658824233 0.0000000000 0.0000000000 -0.3948030804
O 1.9938824233 3.9877648466 1.9658824233 0.0000000000 0.0000000000 -0.3948030804
O 5.9816472698 3.9877648466 1.9658824233 0.0000000000 0.0000000000 -0.3948030804
O 1.9938824233 0.0000000000 5.9536472698 0.0000000000 0.0000000000 -0.3948037577
O 5.9816472698 0.0000000000 5.9536472698 0.0000000000 0.0000000000 -0.3948037577
O 1.9938824233 3.9877648466 5.9536472698 0.0000000000 0.0000000000 -0.3948037577
O 5.9816472698 3.9877648466 5.9536472698 0.0000000000 0.0000000000 -0.3948037577
O 0.0000000000 1.9938824233 1.9658824233 0.0000000000 0.0000000000 0.1197678601
O 3.9877648466 1.9938824233 1.9658824233 0.0000000000 0.0000000000 0.1197678601
O 0.0000000000 5.9816472698 1.9658824233 0.0000000000 0.0000000000 0.1197678607
O 3.9877648466 5.9816472698 1.9658824233 0.0000000000 0.0000000000 0.1197678607
O 0.0000000000 1.9938824233 5.9536472698 0.0000000000 0.0000000000 0.1197680238
O 3.9877648466 1.9938824233 5.9536472698 0.0000000000 0.0000000000 0.1197680238
O 0.0000000000 5.9816472698 5.9536472698 0.0000000000 0.0000000000 0.1197680244
O 3.9877648466 5.9816472698 5.9536472698 0.0000000000 0.0000000000 0.1197680244
Ti 1.9938824233 1.9938824233 2.0738824233 0.0000000000 0.0000000000 0.1197678601
Ti 5.9816472698 1.9938824233 2.0738824233 0.0000000000 0.0000000000 0.1197678607
Ti 1.9938824233 5.9816472698 2.0738824233 0.0000000000 0.0000000000 0.1197678601
Ti 5.9816472698 5.9816472698 2.0738824233 0.0000000000 0.0000000000 0.1197678607
Ti 1.9938824233 1.9938824233 6.0616472698 0.0000000000 0.0000000000 0.1197680238
Ti 5.9816472698 1.9938824233 6.0616472698 0.0000000000 0.0000000000 0.1197680244
Ti 1.9938824233 5.9816472698 6.0616472698 0.0000000000 0.0000000000 0.1197680238
Ti 5.9816472698 5.9816472698 6.0616472698 0.0000000000 0.0000000000 0.1197680244
40
Lattice="8.2184392269 0 0 0 8.2184392269 0 0 0 8.2184392269" Properties=species:S:1:pos:R:3:force:R:3 energy=-29832.5695279 frame_id=supp_040 structure_id=extxyz total_charge=0 stress="-0.0840701950464 0 0 0 -0.0840701950464 0 0 0 -0.0787406003142" phase_label=cubic
Ba 0.0000000000 0.0000000000 0.0000000000 0.0000000000 0.0000000000 0.1915092389
Ba 4.1092196134 0.0000000000 0.0000000000 0.0000000000 0.0000000000 0.1915092391
Ba 0.0000000000 4.1092196134 0.0000000000 0.0000000000 0.0000000000 0.1915092391
Ba 4.1092196134 4.1092196134 0.0000000000 0.0000000000 0.0000000000 0.1915092392
Ba 0.0000000000 0.0000000000 4.1092196134 0.0000000000 0.0000000000 0.1915092325
Ba 4.1092196134 0.0000000000 4.1092196134 0.0000000000 0.0000000000 0.1915092324
Ba 0.0000000000 4.1092196134 4.1092196134 0.0000000000 0.0000000000 0.1915092324
Ba 4.1092196134 4.1092196134 4.1092196134 0.0000000000 0.0000000000 0.1915092323
O 2.0546098067 2.0546098067 8.1904392269 0.0000000000 0.0000000000 0.3431146314
O 6.1638294202 2.0546098067 8.1904392269 0.0000000000 0.0000000000 0.3431146314
O 2.0546098067 6.1638294202 8.1904392269 0.0000000000 0.0000000000 0.3431146314
O 6.1638294202 6.1638294202 8.1904392269 0.0000000000 0.0000000000 0.3431146314
O 2.0546098067 2.0546098067 4.0812196135 0.0000000000 0.0000000000 0.3431146625
O 6.1638294202 2.0546098067 4.0812196135 0.0000000000 0.0000000000 0.3431146625
O 2.0546098067 6.1638294202 4.0812196135 0.0000000000 0.0000000000 0.3431146625
O 6.1638294202 6.1638294202 4.0812196135 0.0000000000 0.0000000000 0.3431146625
O 2.0546098067 0.0000000000 2.0266098067 0.0000000000 0.0000000000 -0.8502920948
O 6.1638294202 0.0000000000 2.0266098067 0.0000000000 0.0000000000 -0.8502920948
O 2.0546098067 4.1092196134 2.0266098067 0.0000000000 0.0000000000 -0.8502920948
O 6.1638294202 4.1092196134 2.0266098067 0.0000000000 0.0000000000 -0.8502920948
O 2.0546098067 0.0000000000 6.1358294202 0.0000000000 0.0000000000 -0.8502921297
O 6.1638294202 0.0000000000 6.1358294202 0.0000000000 0.0000000000 -0.8502921297
O 2.0546098067 4.1092196134 6.1358294202 0.0000000000 0.0000000000 -0.8502921297
O 6.1638294202 4.1092196134 6.1358294202 0.0000000000 0.0000000000 -0.8502921297
O 0.0000000000 2.0546098067 2.0266098067 0.0000000000 0.0000000000 0.1578341112
O 4.1092196134 2.0546098067 2.0266098067 0.0000000000 0.0000000000 0.1578341112
O 0.0000000000 6.1638294202 2.0266098067 0.0000000000 0.0000000000 0.1578341112
O 4.1092196134 6.1638294202 2.0266098067 0.0000000000 0.0000000000 0.1578341112
O 0.0000000000 2.0546098067 6.1358294202 0.0000000000 0.0000000000 0.1578341183
O 4.1092196134 2.0546098067 6.1358294202 0.0000000000 0.0000000000 0.1578341183
O 0.0000000000 6.1638294202 6.1358294202 0.0000000000 0.0000000000 0.1578341183
O 4.1092196134 6.1638294202 6.1358294202 0.0000000000 0.0000000000 0.1578341183
Ti 2.0546098067 2.0546098067 2.1346098067 0.0000000000 0.0000000000 0.1578341112
Ti 6.1638294202 2.0546098067 2.1346098067 0.0000000000 0.0000000000 0.1578341112
Ti 2.0546098067 6.1638294202 2.1346098067 0.0000000000 0.0000000000 0.1578341112
Ti 6.1638294202 6.1638294202 2.1346098067 0.0000000000 0.0000000000 0.1578341112
Ti 2.0546098067 2.0546098067 6.2438294202 0.0000000000 0.0000000000 0.1578341183
Ti 6.1638294202 2.0546098067 6.2438294202 0.0000000000 0.0000000000 0.1578341183
Ti 2.0546098067 6.1638294202 6.2438294202 0.0000000000 0.0000000000 0.1578341183
Ti 6.1638294202 6.1638294202 6.2438294202 0.0000000000 0.0000000000 0.1578341183
40
Lattice="8.09698446 0 0 0 8.09698446 0 0 0 8.09698446" Properties=species:S:1:pos:R:3:force:R:3 energy=-29834.1112292 frame_id=supp_041 structure_id=extxyz total_charge=0 stress="-0.0473921774063 0.00115012578426 0 0.00115012578426 -0.0473921774063 0 0 0 -0.0493227202785" phase_label=cubic
Ba 0.0000000000 0.0000000000 0.0000000000 0.1040967519 0.1040967519 0.0000000000
Ba 4.0484922300 0.0000000000 0.0000000000 0.1040967527 0.1040967519 0.0000000000
Ba 0.0000000000 4.0484922300 0.0000000000 0.1040967519 0.1040967527 0.0000000000
Ba 4.0484922300 4.0484922300 0.0000000000 0.1040967527 0.1040967527 0.0000000000
Ba 0.0000000000 0.0000000000 4.0484922300 0.1040967519 0.1040967519 0.0000000000
Ba 4.0484922300 0.0000000000 4.0484922300 0.1040967526 0.1040967519 0.0000000000
Ba 0.0000000000 4.0484922300 4.0484922300 0.1040967519 0.1040967526 0.0000000000
Ba 4.0484922300 4.0484922300 4.0484922300 0.1040967527 0.1040967527 0.0000000000
O 2.0093968726 2.0093968726 0.0000000000 0.1571554460 0.1571554460 0.0000000000
O 6.0578891026 2.0093968726 0.0000000000 0.1571554405 0.1571554459 0.0000000000
O 2.0093968726 6.0578891026 0.0000000000 0.1571554459 0.1571554405 0.0000000000
O 6.0578891026 6.0578891026 0.0000000000 0.1571554403 0.1571554403 0.0000000000
O 2.0093968726 2.0093968726 4.0484922300 0.1571554460 0.1571554460 0.0000000000
O 6.0578891026 2.0093968726 4.0484922300 0.1571554405 0.1571554459 0.0000000000
O 2.0093968726 6.0578891026 4.0484922300 0.1571554459 0.1571554405 0.0000000000
O 6.0578891026 6.0578891026 4.0484922300 0.1571554403 0.1571554403 0.0000000000
O 2.0093968726 8.0821352176 2.0242461150 0.0673698128 0.0673698128 0.0000000000
O 6.0578891026 8.0821352176 2.0242461150 0.0673698115 0.0673698132 0.0000000000
O 2.0093968726 4.0336429876 2.0242461150 0.0673698132 0.0673698115 0.0000000000
O 6.0578891026 4.0336429876 2.0242461150 0.0673698119 0.0673698119 0.0000000000
O 2.0093968726 8.0821352176 6.0727383450 0.0673698128 0.0673698128 0.0000000000
O 6.0578891026 8.0821352176 6.0727383450 0.0673698115 0.0673698132 0.0000000000
O 2.0093968726 4.0336429876 6.0727383450 0.0673698132 0.0673698115 0.0000000000
O 6.0578891026 4.0336429876 6.0727383450 0.0673698119 0.0673698119 0.0000000000
O 8.0821352176 2.0093968726 2.0242461150 0.0695721140 -0.3981941249 0.0000000000
O 4.0336429876 2.0093968726 2.0242461150 0.0695721126 -0.3981941262 0.0000000000
O 8.0821352176 6.0578891026 2.0242461150 0.0695721139 -0.3981941163 0.0000000000
O 4.0336429876 6.0578891026 2.0242461150 0.0695721125 -0.3981941170 0.0000000000
O 8.0821352176 2.0093968726 6.0727383450 0.0695721140 -0.3981941249 0.0000000000
O 4.0336429876 2.0093968726 6.0727383450 0.0695721126 -0.3981941262 0.0000000000
O 8.0821352176 6.0578891026 6.0727383450 0.0695721139 -0.3981941163 0.0000000000
O 4.0336429876 6.0578891026 6.0727383450 0.0695721125 -0.3981941170 0.0000000000
Ti 2.0666725219 2.0666725219 2.0242461150 -0.3981941249 0.0695721140 0.0000000000
Ti 6.1151647519 2.0666725219 2.0242461150 -0.3981941163 0.0695721139 0.0000000000
Ti 2.0666725219 6.1151647519 2.0242461150 -0.3981941262 0.0695721126 0.0000000000
Ti 6.1151647519 6.1151647519 2.0242461150 -0.3981941170 0.0695721125 0.0000000000
Ti 2.0666725219 2.0666725219 6.0727383450 -0.3981941249 0.0695721140 0.0000000000
Ti 6.1151647519 2.0666725219 6.0727383450 -0.3981941163 0.0695721139 0.0000000000
Ti 2.0666725219 6.1151647519 6.0727383450 -0.3981941262 0.0695721126 0.0000000000
Ti 6.1151647519 6.1151647519 6.0727383450 -0.3981941170 0.0695721125 0.0000000000
40
Lattice="8.09698446 0 0 0 8.09698446 0 0 0 8.09698446" Properties=species:S:1:pos:R:3:force:R:3 energy=-29834.231801 frame_id=supp_042 structure_id=extxyz total_charge=0 stress="-0.042825588136 0.00306247348768 0 0.00306247348768 -0.042825588136 0 0 0 -0.0482475685912" phase_label=cubic
Ba 0.0000000000 0.0000000000 0.0000000000 0.1754438221 0.1754438221 0.0000000000
Ba 4.0484922300 0.0000000000 0.0000000000 0.1754438215 0.1754438222 0.0000000000
Ba 0.0000000000 4.0484922300 0.0000000000 0.1754438222 0.1754438215 0.0000000000
Ba 4.0484922300 4.0484922300 0.0000000000 0.1754438213 0.1754438213 0.0000000000
Ba 0.0000000000 0.0000000000 4.0484922300 0.1754438221 0.1754438221 0.0000000000
Ba 4.0484922300 0.0000000000 4.0484922300 0.1754438215 0.1754438222 0.0000000000
Ba 0.0000000000 4.0484922300 4.0484922300 0.1754438222 0.1754438215 0.0000000000
Ba 4.0484922300 4.0484922300 4.0484922300 0.1754438213 0.1754438213 0.0000000000
O 1.9994973777 1.9994973777 0.0000000000 0.1438884356 0.1438884356 0.0000000000
O 6.0479896077 1.9994973777 0.0000000000 0.1438884391 0.1438884354 0.0000000000
O 1.9994973777 6.0479896077 0.0000000000 0.1438884354 0.1438884391 0.0000000000
O 6.0479896077 6.0479896077 0.0000000000 0.1438884396 0.1438884396 0.0000000000
O 1.9994973777 1.9994973777 4.0484922300 0.1438884356 0.1438884356 0.0000000000
O 6.0479896077 1.9994973777 4.0484922300 0.1438884391 0.1438884354 0.0000000000
O 1.9994973777 6.0479896077 4.0484922300 0.1438884354 0.1438884391 0.0000000000
O 6.0479896077 6.0479896077 4.0484922300 0.1438884396 0.1438884396 0.0000000000
O 1.9994973777 8.0722357227 2.0242461150 0.1218903109 0.1218903109 0.0000000000
O 6.0479896077 8.0722357227 2.0242461150 0.1218903117 0.1218903105 0.0000000000
O 1.9994973777 4.0237434927 2.0242461150 0.1218903105 0.1218903117 0.0000000000
O 6.0479896077 4.0237434927 2.0242461150 0.1218903115 0.1218903115 0.0000000000
O 1.9994973777 8.0722357227 6.0727383450 0.1218903109 0.1218903109 0.0000000000
O 6.0479896077 8.0722357227 6.0727383450 0.1218903117 0.1218903105 0.0000000000
O 1.9994973777 4.0237434927 6.0727383450 0.1218903105 0.1218903117 0.0000000000
O 6.0479896077 4.0237434927 6.0727383450 0.1218903115 0.1218903115 0.0000000000
O 8.0722357227 1.9994973777 2.0242461150 0.1302641745 -0.5714867439 0.0000000000
O 4.0237434927 1.9994973777 2.0242461150 0.1302641754 -0.5714867426 0.0000000000
O 8.0722357227 6.0479896077 2.0242461150 0.1302641745 -0.5714867475 0.0000000000
O 4.0237434927 6.0479896077 2.0242461150 0.1302641754 -0.5714867473 0.0000000000
O 8.0722357227 1.9994973777 6.0727383450 0.1302641745 -0.5714867439 0.0000000000
O 4.0237434927 1.9994973777 6.0727383450 0.1302641754 -0.5714867426 0.0000000000
O 8.0722357227 6.0479896077 6.0727383450 0.1302641745 -0.5714867475 0.0000000000
O 4.0237434927 6.0479896077 6.0727383450 0.1302641754 -0.5714867473 0.0000000000
Ti 2.0949567931 2.0949567931 2.0242461150 -0.5714867439 0.1302641745 0.0000000000
Ti 6.1434490231 2.0949567931 2.0242461150 -0.5714867475 0.1302641745 0.0000000000
Ti 2.0949567931 6.1434490231 2.0242461150 -0.5714867426 0.1302641754 0.0000000000
Ti 6.1434490231 6.1434490231 2.0242461150 -0.5714867473 0.1302641754 0.0000000000
Ti 2.0949567931 2.0949567931 6.0727383450 -0.5714867439 0.1302641745 0.0000000000
Ti 6.1434490231 2.0949567931 6.0727383450 -0.5714867475 0.1302641745 0.0000000000
Ti 2.0949567931 6.1434490231 6.0727383450 -0.5714867426 0.1302641754 0.0000000000
Ti 6.1434490231 6.1434490231 6.0727383450 -0.5714867473 0.1302641754 0.0000000000
40
Lattice="7.9755296931 0 0 0 7.9755296931 0 0 0 7.9755296931" Properties=species:S:1:pos:R:3:force:R:3 energy=-29834.760246 frame_id=supp_043 structure_id=extxyz total_charge=0 stress="0.000192458233915 0.00171061681979 0 0.00171061681979 0.000192458233915 0 0 0 -0.00431941302578" phase_label=cubic
Ba 0.0000000000 0.0000000000 0.0000000000 0.1432511917 0.1432511917 0.0000000000
Ba 3.9877648466 0.0000000000 0.0000000000 0.1432511914 0.1432511916 0.0000000000
Ba 0.0000000000 3.9877648466 0.0000000000 0.1432511916 0.1432511914 0.0000000000
Ba 3.9877648466 3.9877648466 0.0000000000 0.1432511915 0.1432511915 0.0000000000
Ba 0.0000000000 0.0000000000 3.9877648466 0.1432511906 0.1432511906 0.0000000000
Ba 3.9877648466 0.0000000000 3.9877648466 0.1432511904 0.1432511906 0.0000000000
Ba 0.0000000000 3.9877648466 3.9877648466 0.1432511906 0.1432511904 0.0000000000
Ba 3.9877648466 3.9877648466 3.9877648466 0.1432511904 0.1432511904 0.0000000000
O 1.9740834334 1.9740834334 0.0000000000 0.0274933005 0.0274933005 0.0000000000
O 5.9618482799 1.9740834334 0.0000000000 0.0274933020 0.0274933006 0.0000000000
O 1.9740834334 5.9618482799 0.0000000000 0.0274933006 0.0274933020 0.0000000000
O 5.9618482799 5.9618482799 0.0000000000 0.0274933020 0.0274933020 0.0000000000
O 1.9740834334 1.9740834334 3.9877648466 0.0274933005 0.0274933005 0.0000000000
O 5.9618482799 1.9740834334 3.9877648466 0.0274933020 0.0274933006 0.0000000000
O 1.9740834334 5.9618482799 3.9877648466 0.0274933006 0.0274933020 0.0000000000
O 5.9618482799 5.9618482799 3.9877648466 0.0274933020 0.0274933020 0.0000000000
O 1.9740834334 7.9557307032 1.9938824233 0.0771865652 0.0771865652 0.0000000000
O 5.9618482799 7.9557307032 1.9938824233 0.0771865655 0.0771865651 0.0000000000
O 1.9740834334 3.9679658567 1.9938824233 0.0771865651 0.0771865655 0.0000000000
O 5.9618482799 3.9679658567 1.9938824233 0.0771865654 0.0771865654 0.0000000000
O 1.9740834334 7.9557307032 5.9816472698 0.0771865655 0.0771865655 0.0000000000
O 5.9618482799 7.9557307032 5.9816472698 0.0771865659 0.0771865654 0.0000000000
O 1.9740834334 3.9679658567 5.9816472698 0.0771865654 0.0771865659 0.0000000000
O 5.9618482799 3.9679658567 5.9816472698 0.0771865657 0.0771865657 0.0000000000
O 7.9557307032 1.9740834334 1.9938824233 0.0808665968 -0.3287976539 0.0000000000
O 3.9679658567 1.9740834334 1.9938824233 0.0808665972 -0.3287976538 0.0000000000
O 7.9557307032 5.9618482799 1.9938824233 0.0808665968 -0.3287976559 0.0000000000
O 3.9679658567 5.9618482799 1.9938824233 0.0808665972 -0.3287976555 0.0000000000
O 7.9557307032 1.9740834334 5.9816472698 0.0808665968 -0.3287976539 0.0000000000
O 3.9679658567 1.9740834334 5.9816472698 0.0808665972 -0.3287976538 0.0000000000
O 7.9557307032 5.9618482799 5.9816472698 0.0808665968 -0.3287976559 0.0000000000
O 3.9679658567 5.9618482799 5.9816472698 0.0808665972 -0.3287976555 0.0000000000
Ti 2.0504509658 2.0504509658 1.9938824233 -0.3287976539 0.0808665968 0.0000000000
Ti 6.0382158123 2.0504509658 1.9938824233 -0.3287976559 0.0808665968 0.0000000000
Ti 2.0504509658 6.0382158123 1.9938824233 -0.3287976538 0.0808665972 0.0000000000
Ti 6.0382158123 6.0382158123 1.9938824233 -0.3287976555 0.0808665972 0.0000000000
Ti 2.0504509658 2.0504509658 5.9816472698 -0.3287976539 0.0808665968 0.0000000000
Ti 6.0382158123 2.0504509658 5.9816472698 -0.3287976559 0.0808665968 0.0000000000
Ti 2.0504509658 6.0382158123 5.9816472698 -0.3287976538 0.0808665972 0.0000000000
Ti 6.0382158123 6.0382158123 5.9816472698 -0.3287976555 0.0808665972 0.0000000000
40
Lattice="8.2184392269 0 0 0 8.2184392269 0 0 0 8.2184392269" Properties=species:S:1:pos:R:3:force:R:3 energy=-29832.5843293 frame_id=supp_044 structure_id=extxyz total_charge=0 stress="-0.08146580443 0.00223519534114 0 0.00223519534114 -0.08146580443 0 0 0 -0.0840726306738" phase_label=cubic
Ba 0.0000000000 0.0000000000 0.0000000000 0.1339503275 0.1339503275 0.0000000000
Ba 4.1092196134 0.0000000000 0.0000000000 0.1339503285 0.1339503274 0.0000000000
Ba 0.0000000000 4.1092196134 0.0000000000 0.1339503274 0.1339503285 0.0000000000
Ba 4.1092196134 4.1092196134 0.0000000000 0.1339503287 0.1339503287 0.0000000000
Ba 0.0000000000 0.0000000000 4.1092196134 0.1339503277 0.1339503277 0.0000000000
Ba 4.1092196134 0.0000000000 4.1092196134 0.1339503284 0.1339503276 0.0000000000
Ba 0.0000000000 4.1092196134 4.1092196134 0.1339503276 0.1339503284 0.0000000000
Ba 4.1092196134 4.1092196134 4.1092196134 0.1339503285 0.1339503285 0.0000000000
O 2.0348108168 2.0348108168 0.0000000000 0.2892542173 0.2892542173 0.0000000000
O 6.1440304303 2.0348108168 0.0000000000 0.2892542121 0.2892542174 0.0000000000
O 2.0348108168 6.1440304303 0.0000000000 0.2892542174 0.2892542121 0.0000000000
O 6.1440304303 6.1440304303 0.0000000000 0.2892542118 0.2892542118 0.0000000000
O 2.0348108168 2.0348108168 4.1092196134 0.2892542173 0.2892542173 0.0000000000
O 6.1440304303 2.0348108168 4.1092196134 0.2892542121 0.2892542174 0.0000000000
O 2.0348108168 6.1440304303 4.1092196134 0.2892542174 0.2892542121 0.0000000000
O 6.1440304303 6.1440304303 4.1092196134 0.2892542118 0.2892542118 0.0000000000
O 2.0348108168 8.1986402370 2.0546098067 0.1054966025 0.1054966025 0.0000000000
O 6.1440304303 8.1986402370 2.0546098067 0.1054966012 0.1054966029 0.0000000000
O 2.0348108168 4.0894206236 2.0546098067 0.1054966029 0.1054966012 0.0000000000
O 6.1440304303 4.0894206236 2.0546098067 0.1054966016 0.1054966016 0.0000000000
O 2.0348108168 8.1986402370 6.1638294202 0.1054966024 0.1054966024 0.0000000000
O 6.1440304303 8.1986402370 6.1638294202 0.1054966012 0.1054966029 0.0000000000
O 2.0348108168 4.0894206236 6.1638294202 0.1054966029 0.1054966012 0.0000000000
O 6.1440304303 4.0894206236 6.1638294202 0.1054966016 0.1054966016 0.0000000000
O 8.1986402370 2.0348108168 2.0546098067 0.1110558700 -0.6397570170 0.0000000000
O 4.0894206236 2.0348108168 2.0546098067 0.1110558687 -0.6397570183 0.0000000000
O 8.1986402370 6.1440304303 2.0546098067 0.1110558700 -0.6397570100 0.0000000000
O 4.0894206236 6.1440304303 2.0546098067 0.1110558686 -0.6397570107 0.0000000000
O 8.1986402370 2.0348108168 6.1638294202 0.1110558700 -0.6397570170 0.0000000000
O 4.0894206236 2.0348108168 6.1638294202 0.1110558687 -0.6397570183 0.0000000000
O 8.1986402370 6.1440304303 6.1638294202 0.1110558700 -0.6397570100 0.0000000000
O 4.0894206236 6.1440304303 6.1638294202 0.1110558686 -0.6397570107 0.0000000000
Ti 2.1111783492 2.1111783492 2.0546098067 -0.6397570170 0.1110558700 0.0000000000
Ti 6.2203979627 2.1111783492 2.0546098067 -0.6397570100 0.1110558700 0.0000000000
Ti 2.1111783492 6.2203979627 2.0546098067 -0.6397570183 0.1110558687 0.0000000000
Ti 6.2203979627 6.2203979627 2.0546098067 -0.6397570107 0.1110558686 0.0000000000
Ti 2.1111783492 2.1111783492 6.1638294202 -0.6397570170 0.1110558700 0.0000000000
Ti 6.2203979627 2.1111783492 6.1638294202 -0.6397570100 0.1110558700 0.0000000000
Ti 2.1111783492 6.2203979627 6.1638294202 -0.6397570183 0.1110558687 0.0000000000
Ti 6.2203979627 6.2203979627 6.1638294202 -0.6397570107 0.1110558686 0.0000000000
40
Lattice="8.09698446 0 0 0 8.09698446 0 0 0 8.09698446" Properties=species:S:1:pos:R:3:force:R:3 energy=-29834.1129388 frame_id=supp_045 structure_id=extxyz total_charge=0 stress="-0.0480211559612 0.000764211110072 0.000764211110072 0.000764211110072 -0.0480211559612 0.000764211110072 0.000764211110072 0.000764211110072 -0.0480211559612" phase_label=cubic
Ba 0.0000000000 0.0000000000 0.0000000000 0.0847753056 0.0847753056 0.0847753056
Ba 4.0484922300 0.0000000000 0.0000000000 0.0847752978 0.0847753025 0.0847753025
Ba 0.0000000000 4.0484922300 0.0000000000 0.0847753025 0.0847752978 0.0847753025
Ba 4.0484922300 4.0484922300 0.0000000000 0.0847753010 0.0847753010 0.0847752995
Ba 0.0000000000 0.0000000000 4.0484922300 0.0847753025 0.0847753025 0.0847752978
Ba 4.0484922300 0.0000000000 4.0484922300 0.0847753010 0.0847752995 0.0847753010
Ba 0.0000000000 4.0484922300 4.0484922300 0.0847752995 0.0847753010 0.0847753010
Ba 4.0484922300 4.0484922300 4.0484922300 0.0847753041 0.0847753041 0.0847753041
O 2.0121217593 2.0121217593 8.0848601043 0.1348999633 0.1348999633 0.1348999633
O 6.0606139894 2.0121217593 8.0848601043 0.1348999811 0.1348999727 0.1348999727
O 2.0121217593 6.0606139894 8.0848601043 0.1348999727 0.1348999811 0.1348999727
O 6.0606139894 6.0606139894 8.0848601043 0.1348999701 0.1348999701 0.1348999790
O 2.0121217593 2.0121217593 4.0363678743 0.1348999727 0.1348999727 0.1348999811
O 6.0606139894 2.0121217593 4.0363678743 0.1348999701 0.1348999790 0.1348999701
O 2.0121217593 6.0606139894 4.0363678743 0.1348999790 0.1348999701 0.1348999701
O 6.0606139894 6.0606139894 4.0363678743 0.1348999628 0.1348999628 0.1348999628
O 2.0121217593 8.0848601043 2.0121217593 0.0553610395 0.0553610395 -0.3303973596
O 6.0606139894 8.0848601043 2.0121217593 0.0553610420 0.0553610427 -0.3303973694
O 2.0121217593 4.0363678743 2.0121217593 0.0553610427 0.0553610420 -0.3303973694
O 6.0606139894 4.0363678743 2.0121217593 0.0553610410 0.0553610410 -0.3303973745
O 2.0121217593 8.0848601043 6.0606139894 0.0553610395 0.0553610395 -0.3303973470
O 6.0606139894 8.0848601043 6.0606139894 0.0553610419 0.0553610426 -0.3303973419
O 2.0121217593 4.0363678743 6.0606139894 0.0553610426 0.0553610419 -0.3303973419
O 6.0606139894 4.0363678743 6.0606139894 0.0553610409 0.0553610409 -0.3303973422
O 8.0848601043 2.0121217593 2.0121217593 0.0553610395 -0.3303973596 0.0553610395
O 4.0363678743 2.0121217593 2.0121217593 0.0553610420 -0.3303973694 0.0553610427
O 8.0848601043 6.0606139894 2.0121217593 0.0553610395 -0.3303973470 0.0553610395
O 4.0363678743 6.0606139894 2.0121217593 0.0553610419 -0.3303973419 0.0553610426
O 8.0848601043 2.0121217593 6.0606139894 0.0553610427 -0.3303973694 0.0553610420
O 4.0363678743 2.0121217593 6.0606139894 0.0553610410 -0.3303973745 0.0553610410
O 8.0848601043 6.0606139894 6.0606139894 0.0553610426 -0.3303973419 0.0553610419
O 4.0363678743 6.0606139894 6.0606139894 0.0553610409 -0.3303973422 0.0553610409
Ti 2.0588871312 2.0588871312 2.0588871312 -0.3303973596 0.0553610395 0.0553610395
Ti 6.1073793611 2.0588871312 2.0588871312 -0.3303973470 0.0553610395 0.0553610395
Ti 2.0588871312 6.1073793611 2.0588871312 -0.3303973694 0.0553610420 0.0553610427
Ti 6.1073793611 6.1073793611 2.0588871312 -0.3303973419 0.0553610419 0.0553610426
Ti 2.0588871312 2.0588871312 6.1073793611 -0.3303973694 0.0553610427 0.0553610420
Ti 6.1073793611 2.0588871312 6.1073793611 -0.3303973419 0.0553610426 0.0553610419
Ti 2.0588871312 6.1073793611 6.1073793611 -0.3303973745 0.0553610410 0.0553610410
Ti 6.1073793611 6.1073793611 6.1073793611 -0.3303973422 0.0553610409 0.0553610409
40
Lattice="8.09698446 0 0 0 8.09698446 0 0 0 8.09698446" Properties=species:S:1:pos:R:3:force:R:3 energy=-29834.2453954 frame_id=supp_046 structure_id=extxyz total_charge=0 stress="-0.044695083664 0.00202949591 0.00202949591 0.00202949591 -0.044695083664 0.00202949591 0.00202949591 0.00202949591 -0.044695083664" phase_label=cubic
Ba 0.0000000000 0.0000000000 0.0000000000 0.1423650168 0.1423650168 0.1423650168
Ba 4.0484922300 0.0000000000 0.0000000000 0.1423650358 0.1423650261 0.1423650261
Ba 0.0000000000 4.0484922300 0.0000000000 0.1423650261 0.1423650358 0.1423650261
Ba 4.0484922300 4.0484922300 0.0000000000 0.1423650268 0.1423650268 0.1423650351
Ba 0.0000000000 0.0000000000 4.0484922300 0.1423650261 0.1423650261 0.1423650358
Ba 4.0484922300 0.0000000000 4.0484922300 0.1423650268 0.1423650351 0.1423650268
Ba 0.0000000000 4.0484922300 4.0484922300 0.1423650351 0.1423650268 0.1423650268
Ba 4.0484922300 4.0484922300 4.0484922300 0.1423650179 0.1423650179 0.1423650179
O 2.0040388556 2.0040388556 8.0767772006 0.1454899793 0.1454899793 0.1454899793
O 6.0525310856 2.0040388556 8.0767772006 0.1454899091 0.1454899455 0.1454899455
O 2.0040388556 6.0525310856 8.0767772006 0.1454899455 0.1454899091 0.1454899455
O 6.0525310856 6.0525310856 8.0767772006 0.1454899383 0.1454899383 0.1454899247
O 2.0040388556 2.0040388556 4.0282849706 0.1454899455 0.1454899455 0.1454899091
O 6.0525310856 2.0040388556 4.0282849706 0.1454899383 0.1454899247 0.1454899383
O 2.0040388556 6.0525310856 4.0282849706 0.1454899247 0.1454899383 0.1454899383
O 6.0525310856 6.0525310856 4.0282849706 0.1454899610 0.1454899610 0.1454899610
O 2.0040388556 8.0767772006 2.0040388556 0.1008366829 0.1008366829 -0.4895283767
O 6.0525310856 8.0767772006 2.0040388556 0.1008366750 0.1008366788 -0.4895283338
O 2.0040388556 4.0282849706 2.0040388556 0.1008366788 0.1008366750 -0.4895283338
O 6.0525310856 4.0282849706 2.0040388556 0.1008366811 0.1008366811 -0.4895283022
O 2.0040388556 8.0767772006 6.0525310856 0.1008366821 0.1008366821 -0.4895282695
O 6.0525310856 8.0767772006 6.0525310856 0.1008366751 0.1008366786 -0.4895283265
O 2.0040388556 4.0282849706 6.0525310856 0.1008366786 0.1008366751 -0.4895283265
O 6.0525310856 4.0282849706 6.0525310856 0.1008366816 0.1008366816 -0.4895283545
O 8.0767772006 2.0040388556 2.0040388556 0.1008366829 -0.4895283767 0.1008366829
O 4.0282849706 2.0040388556 2.0040388556 0.1008366750 -0.4895283338 0.1008366788
O 8.0767772006 6.0525310856 2.0040388556 0.1008366821 -0.4895282695 0.1008366821
O 4.0282849706 6.0525310856 2.0040388556 0.1008366751 -0.4895283265 0.1008366786
O 8.0767772006 2.0040388556 6.0525310856 0.1008366788 -0.4895283338 0.1008366750
O 4.0282849706 2.0040388556 6.0525310856 0.1008366811 -0.4895283022 0.1008366811
O 8.0767772006 6.0525310856 6.0525310856 0.1008366786 -0.4895283265 0.1008366751
O 4.0282849706 6.0525310856 6.0525310856 0.1008366816 -0.4895283545 0.1008366816
Ti 2.0819811419 2.0819811419 2.0819811419 -0.4895283767 0.1008366829 0.1008366829
Ti 6.1304733719 2.0819811419 2.0819811419 -0.4895282695 0.1008366821 0.1008366821
Ti 2.0819811419 6.1304733719 2.0819811419 -0.4895283338 0.1008366750 0.1008366788
Ti 6.1304733719 6.1304733719 2.0819811419 -0.4895283265 0.1008366751 0.1008366786
Ti 2.0819811419 2.0819811419 6.1304733719 -0.4895283338 0.1008366788 0.1008366750
Ti 6.1304733719 2.0819811419 6.1304733719 -0.4895283265 0.1008366786 0.1008366751
Ti 2.0819811419 6.1304733719 6.1304733719 -0.4895283022 0.1008366811 0.1008366811
Ti 6.1304733719 6.1304733719 6.1304733719 -0.4895283545 0.1008366816 0.1008366816
