3C-SiC primitive cell, initial a=4.36 An
   1.00000000000000     
    -0.0000000000000000    2.1892749409093808    2.1892749409093808
     2.1892749409093808    0.0000000000000000    2.1892749409093808
     2.1892749409093808    2.1892749409093808    0.0000000000000000
   Si   C 
     1     1
Direct
  0.0000000000000000 -0.0000000000000000 -0.0000000000000000
  0.2500000000000000  0.2500000000000000  0.2500000000000000
 
  0.00000000E+00  0.00000000E+00  0.00000000E+00
  0.00000000E+00  0.00000000E+00  0.00000000E+00
