B  N 
 1.0000000000000000
    24.7965613901695860    0.0000000000000000    0.0000000000000000
     0.0000000000000000   24.7965613901695860    0.0000000000000000
     0.0000000000000000    0.0000000000000000    4.3499999999999970
 B   N  
  12  12
Direct
  0.5967182770767392  0.4999999999999998  0.0000000000000000
  0.5837604849587184  0.5483591385383695  0.4999999999999999
  0.5483591385383697  0.5837604849587184  0.0000000000000002
  0.4999999999999998  0.5967182770767392  0.5000000000000002
  0.4516408614616307  0.5837604849587184  0.0000000000000004
  0.4162395150412819  0.5483591385383697  0.5000000000000004
  0.4032817229232609  0.4999999999999998  0.0000000000000004
  0.4162395150412819  0.4516408614616307  0.5000000000000002
  0.4516408614616303  0.4162395150412819  0.0000000000000007
  0.4999999999999998  0.4032817229232609  0.5000000000000009
  0.5483591385383695  0.4162395150412817  0.0000000000000014
  0.5837604849587184  0.4516408614616303  0.5000000000000009
  0.5837604849587184  0.5483591385383697  0.8333333333333334
  0.5483591385383695  0.5837604849587184  0.3333333333333333
  0.4999999999999998  0.5967182770767392  0.8333333333333334
  0.4516408614616303  0.5837604849587184  0.3333333333333334
  0.4162395150412819  0.5483591385383697  0.8333333333333334
  0.4032817229232609  0.4999999999999998  0.3333333333333339
  0.4162395150412819  0.4516408614616303  0.8333333333333338
  0.4516408614616303  0.4162395150412819  0.3333333333333334
  0.4999999999999998  0.4032817229232609  0.8333333333333344
  0.5483591385383697  0.4162395150412819  0.3333333333333341
  0.5837604849587184  0.4516408614616303  0.8333333333333344
  0.5967182770767392  0.4999999999999998  0.3333333333333341
