Wurtzite AlN; Cartesian z parallel to +c
   1.00000000000000     
     3.1280583034525211    0.0000000668810949    0.0000000000940619
    -1.5640290937860966    2.7089779864008463    0.0000000003224549
     0.0000000003153154    0.0000000005214451    5.0151373175706038
   Al   N 
     2     2
Direct
  0.3333333347020878  0.6666666679028770  0.0002396757773932
  0.6666666654179608  0.3333333324888280  0.5002396757997506
  0.3333333251413235  0.6666666732494959  0.3817603243320192
  0.6666666747386277  0.3333333263587990  0.8817603240908326
 
  0.00000000E+00  0.00000000E+00  0.00000000E+00
  0.00000000E+00  0.00000000E+00  0.00000000E+00
  0.00000000E+00  0.00000000E+00  0.00000000E+00
  0.00000000E+00  0.00000000E+00  0.00000000E+00
