S  Sb
 1.0000000000000000
    30.4601969999846069    0.0000000000000000    0.0000000000000000
     0.0000000000000000   24.7598467663623474    0.0000000000000000
     0.0000000000000000    0.0000000000000000    3.7857153231483736
 S   Sb 
   6   4
Direct
  0.6698998018999999  0.5554924160000000  0.2500000000000000
  0.5722692845000000  0.5961963492000000  0.7500000000000000
  0.5452068698000000  0.4755363425000000  0.2500000000000000
  0.4547931302000000  0.5244636574999999  0.7500000000000000
  0.4277307155000000  0.4038036508000000  0.2500000000000000
  0.3301001981000000  0.4445075840000000  0.7500000000000000
  0.6254993174000000  0.5177439374000000  0.7500000000000000
  0.5147062927000000  0.5672090310999999  0.2500000000000000
  0.4852937072999999  0.4327909689000000  0.7500000000000000
  0.3745006826000000  0.4822560625999999  0.2500000000000000
