                               nkstot now = 75
K-POINTS DIRECT COORDINATES
 KPOINTS    DIRECT_X    DIRECT_Y    DIRECT_Z  WEIGHT
       1  0.00000000  0.00000000  0.00000000  0.0014
       2  0.11111111  0.00000000  0.00000000  0.0027
       3  0.22222222  0.00000000  0.00000000  0.0027
       4  0.33333333  0.00000000  0.00000000  0.0027
       5  0.44444444  0.00000000  0.00000000  0.0027
       6  0.00000000  0.11111111  0.00000000  0.0055
       7  0.11111111  0.11111111  0.00000000  0.0110
       8  0.22222222  0.11111111  0.00000000  0.0110
       9  0.33333333  0.11111111  0.00000000  0.0110
      10  0.44444444  0.11111111  0.00000000  0.0110
      11  0.00000000  0.22222222  0.00000000  0.0055
      12  0.11111111  0.22222222  0.00000000  0.0110
      13  0.22222222  0.22222222  0.00000000  0.0110
      14  0.33333333  0.22222222  0.00000000  0.0110
      15  0.44444444  0.22222222  0.00000000  0.0110
      16  0.00000000  0.33333333  0.00000000  0.0055
      17  0.11111111  0.33333333  0.00000000  0.0110
      18  0.22222222  0.33333333  0.00000000  0.0110
      19  0.33333333  0.33333333  0.00000000  0.0110
      20  0.44444444  0.33333333  0.00000000  0.0110
      21  0.00000000  0.44444444  0.00000000  0.0055
      22  0.11111111  0.44444444  0.00000000  0.0110
      23  0.22222222  0.44444444  0.00000000  0.0110
      24  0.33333333  0.44444444  0.00000000  0.0110
      25  0.44444444  0.44444444  0.00000000  0.0110
      26  0.00000000  0.11111111  0.11111111  0.0055
      27  0.11111111  0.11111111  0.11111111  0.0110
      28  0.22222222  0.11111111  0.11111111  0.0110
      29  0.33333333  0.11111111  0.11111111  0.0110
      30  0.44444444  0.11111111  0.11111111  0.0110
      31  0.00000000  0.22222222  0.11111111  0.0110
      32  0.11111111  0.22222222  0.11111111  0.0219
      33  0.22222222  0.22222222  0.11111111  0.0219
      34  0.33333333  0.11111111  0.22222222  0.0219
      35  0.44444444  0.22222222  0.11111111  0.0219
      36  0.00000000  0.33333333  0.11111111  0.0110
      37  0.11111111  0.33333333  0.11111111  0.0219
      38  0.22222222  0.11111111  0.33333333  0.0219
      39  0.33333333  0.11111111  0.33333333  0.0219
      40  0.44444444  0.33333333  0.11111111  0.0219
      41  0.00000000  0.44444444  0.11111111  0.0110
      42  0.11111111  0.11111111  0.44444444  0.0219
      43  0.22222222  0.44444444  0.11111111  0.0219
      44  0.33333333  0.44444444  0.11111111  0.0219
      45  0.44444444  0.44444444  0.11111111  0.0219
      46  0.00000000  0.22222222  0.22222222  0.0055
      47  0.11111111  0.22222222  0.22222222  0.0110
      48  0.22222222  0.22222222  0.22222222  0.0110
      49  0.33333333  0.22222222  0.22222222  0.0110
      50  0.44444444  0.22222222  0.22222222  0.0110
      51  0.00000000  0.33333333  0.22222222  0.0110
      52  0.11111111  0.33333333  0.22222222  0.0219
      53  0.22222222  0.22222222  0.33333333  0.0219
      54  0.33333333  0.33333333  0.22222222  0.0219
      55  0.44444444  0.33333333  0.22222222  0.0219
      56  0.00000000  0.44444444  0.22222222  0.0110
      57  0.11111111  0.44444444  0.22222222  0.0219
      58  0.22222222  0.44444444  0.22222222  0.0219
      59  0.33333333  0.44444444  0.22222222  0.0219
      60  0.44444444  0.44444444  0.22222222  0.0219
      61  0.00000000  0.33333333  0.33333333  0.0055
      62  0.11111111  0.33333333  0.33333333  0.0110
      63  0.22222222  0.33333333  0.33333333  0.0110
      64  0.33333333  0.33333333  0.33333333  0.0110
      65  0.44444444  0.33333333  0.33333333  0.0110
      66  0.00000000  0.44444444  0.33333333  0.0110
      67  0.11111111  0.44444444  0.33333333  0.0219
      68  0.22222222  0.44444444  0.33333333  0.0219
      69  0.33333333  0.44444444  0.33333333  0.0219
      70  0.44444444  0.44444444  0.33333333  0.0219
      71  0.00000000  0.44444444  0.44444444  0.0055
      72  0.11111111  0.44444444  0.44444444  0.0110
      73  0.22222222  0.44444444  0.44444444  0.0110
      74  0.33333333  0.44444444  0.44444444  0.0110
      75  0.44444444  0.44444444  0.44444444  0.0110

                                   nkstot = 729                                                            ibzkpt
K-POINTS REDUCTION ACCORDING TO SYMMETRY
     KPT    DIRECT_X    DIRECT_Y    DIRECT_Z     IBZ    DIRECT_X    DIRECT_Y    DIRECT_Z
       1  0.00000000  0.00000000  0.00000000       1  0.00000000  0.00000000  0.00000000
       2  0.11111111  0.00000000  0.00000000       2  0.11111111  0.00000000  0.00000000
       3  0.22222222  0.00000000  0.00000000       3  0.22222222  0.00000000  0.00000000
       4  0.33333333  0.00000000  0.00000000       4  0.33333333  0.00000000  0.00000000
       5  0.44444444  0.00000000  0.00000000       5  0.44444444  0.00000000  0.00000000
       6 -0.44444444  0.00000000  0.00000000       5  0.44444444  0.00000000  0.00000000
       7 -0.33333333  0.00000000  0.00000000       4  0.33333333  0.00000000  0.00000000
       8 -0.22222222  0.00000000  0.00000000       3  0.22222222  0.00000000  0.00000000
       9 -0.11111111  0.00000000  0.00000000       2  0.11111111  0.00000000  0.00000000
      10  0.00000000  0.11111111  0.00000000       6  0.00000000  0.11111111  0.00000000
      11  0.11111111  0.11111111  0.00000000       7  0.11111111  0.11111111  0.00000000
      12  0.22222222  0.11111111  0.00000000       8  0.22222222  0.11111111  0.00000000
      13  0.33333333  0.11111111  0.00000000       9  0.33333333  0.11111111  0.00000000
      14  0.44444444  0.11111111  0.00000000      10  0.44444444  0.11111111  0.00000000
      15 -0.44444444  0.11111111  0.00000000      10  0.44444444  0.11111111  0.00000000
      16 -0.33333333  0.11111111  0.00000000       9  0.33333333  0.11111111  0.00000000
      17 -0.22222222  0.11111111  0.00000000       8  0.22222222  0.11111111  0.00000000
      18 -0.11111111  0.11111111  0.00000000       7  0.11111111  0.11111111  0.00000000
      19  0.00000000  0.22222222  0.00000000      11  0.00000000  0.22222222  0.00000000
      20  0.11111111  0.22222222  0.00000000      12  0.11111111  0.22222222  0.00000000
      21  0.22222222  0.22222222  0.00000000      13  0.22222222  0.22222222  0.00000000
      22  0.33333333  0.22222222  0.00000000      14  0.33333333  0.22222222  0.00000000
      23  0.44444444  0.22222222  0.00000000      15  0.44444444  0.22222222  0.00000000
      24 -0.44444444  0.22222222  0.00000000      15  0.44444444  0.22222222  0.00000000
      25 -0.33333333  0.22222222  0.00000000      14  0.33333333  0.22222222  0.00000000
      26 -0.22222222  0.22222222  0.00000000      13  0.22222222  0.22222222  0.00000000
      27 -0.11111111  0.22222222  0.00000000      12  0.11111111  0.22222222  0.00000000
      28  0.00000000  0.33333333  0.00000000      16  0.00000000  0.33333333  0.00000000
      29  0.11111111  0.33333333  0.00000000      17  0.11111111  0.33333333  0.00000000
      30  0.22222222  0.33333333  0.00000000      18  0.22222222  0.33333333  0.00000000
      31  0.33333333  0.33333333  0.00000000      19  0.33333333  0.33333333  0.00000000
      32  0.44444444  0.33333333  0.00000000      20  0.44444444  0.33333333  0.00000000
      33 -0.44444444  0.33333333  0.00000000      20  0.44444444  0.33333333  0.00000000
      34 -0.33333333  0.33333333  0.00000000      19  0.33333333  0.33333333  0.00000000
      35 -0.22222222  0.33333333  0.00000000      18  0.22222222  0.33333333  0.00000000
      36 -0.11111111  0.33333333  0.00000000      17  0.11111111  0.33333333  0.00000000
      37  0.00000000  0.44444444  0.00000000      21  0.00000000  0.44444444  0.00000000
      38  0.11111111  0.44444444  0.00000000      22  0.11111111  0.44444444  0.00000000
      39  0.22222222  0.44444444  0.00000000      23  0.22222222  0.44444444  0.00000000
      40  0.33333333  0.44444444  0.00000000      24  0.33333333  0.44444444  0.00000000
      41  0.44444444  0.44444444  0.00000000      25  0.44444444  0.44444444  0.00000000
      42 -0.44444444  0.44444444  0.00000000      25  0.44444444  0.44444444  0.00000000
      43 -0.33333333  0.44444444  0.00000000      24  0.33333333  0.44444444  0.00000000
      44 -0.22222222  0.44444444  0.00000000      23  0.22222222  0.44444444  0.00000000
      45 -0.11111111  0.44444444  0.00000000      22  0.11111111  0.44444444  0.00000000
      46  0.00000000 -0.44444444  0.00000000      21  0.00000000  0.44444444  0.00000000
      47  0.11111111 -0.44444444  0.00000000      22  0.11111111  0.44444444  0.00000000
      48  0.22222222 -0.44444444  0.00000000      23  0.22222222  0.44444444  0.00000000
      49  0.33333333 -0.44444444  0.00000000      24  0.33333333  0.44444444  0.00000000
      50  0.44444444 -0.44444444  0.00000000      25  0.44444444  0.44444444  0.00000000
      51 -0.44444444 -0.44444444  0.00000000      25  0.44444444  0.44444444  0.00000000
      52 -0.33333333 -0.44444444  0.00000000      24  0.33333333  0.44444444  0.00000000
      53 -0.22222222 -0.44444444  0.00000000      23  0.22222222  0.44444444  0.00000000
      54 -0.11111111 -0.44444444  0.00000000      22  0.11111111  0.44444444  0.00000000
      55  0.00000000 -0.33333333  0.00000000      16  0.00000000  0.33333333  0.00000000
      56  0.11111111 -0.33333333  0.00000000      17  0.11111111  0.33333333  0.00000000
      57  0.22222222 -0.33333333  0.00000000      18  0.22222222  0.33333333  0.00000000
      58  0.33333333 -0.33333333  0.00000000      19  0.33333333  0.33333333  0.00000000
      59  0.44444444 -0.33333333  0.00000000      20  0.44444444  0.33333333  0.00000000
      60 -0.44444444 -0.33333333  0.00000000      20  0.44444444  0.33333333  0.00000000
      61 -0.33333333 -0.33333333  0.00000000      19  0.33333333  0.33333333  0.00000000
      62 -0.22222222 -0.33333333  0.00000000      18  0.22222222  0.33333333  0.00000000
      63 -0.11111111 -0.33333333  0.00000000      17  0.11111111  0.33333333  0.00000000
      64  0.00000000 -0.22222222  0.00000000      11  0.00000000  0.22222222  0.00000000
      65  0.11111111 -0.22222222  0.00000000      12  0.11111111  0.22222222  0.00000000
      66  0.22222222 -0.22222222  0.00000000      13  0.22222222  0.22222222  0.00000000
      67  0.33333333 -0.22222222  0.00000000      14  0.33333333  0.22222222  0.00000000
      68  0.44444444 -0.22222222  0.00000000      15  0.44444444  0.22222222  0.00000000
      69 -0.44444444 -0.22222222  0.00000000      15  0.44444444  0.22222222  0.00000000
      70 -0.33333333 -0.22222222  0.00000000      14  0.33333333  0.22222222  0.00000000
      71 -0.22222222 -0.22222222  0.00000000      13  0.22222222  0.22222222  0.00000000
      72 -0.11111111 -0.22222222  0.00000000      12  0.11111111  0.22222222  0.00000000
      73  0.00000000 -0.11111111  0.00000000       6  0.00000000  0.11111111  0.00000000
      74  0.11111111 -0.11111111  0.00000000       7  0.11111111  0.11111111  0.00000000
      75  0.22222222 -0.11111111  0.00000000       8  0.22222222  0.11111111  0.00000000
      76  0.33333333 -0.11111111  0.00000000       9  0.33333333  0.11111111  0.00000000
      77  0.44444444 -0.11111111  0.00000000      10  0.44444444  0.11111111  0.00000000
      78 -0.44444444 -0.11111111  0.00000000      10  0.44444444  0.11111111  0.00000000
      79 -0.33333333 -0.11111111  0.00000000       9  0.33333333  0.11111111  0.00000000
      80 -0.22222222 -0.11111111  0.00000000       8  0.22222222  0.11111111  0.00000000
      81 -0.11111111 -0.11111111  0.00000000       7  0.11111111  0.11111111  0.00000000
      82  0.00000000  0.00000000  0.11111111       6  0.00000000  0.11111111  0.00000000
      83  0.11111111  0.00000000  0.11111111       7  0.11111111  0.11111111  0.00000000
      84  0.22222222  0.00000000  0.11111111       8  0.22222222  0.11111111  0.00000000
      85  0.33333333  0.00000000  0.11111111       9  0.33333333  0.11111111  0.00000000
      86  0.44444444  0.00000000  0.11111111      10  0.44444444  0.11111111  0.00000000
      87 -0.44444444  0.00000000  0.11111111      10  0.44444444  0.11111111  0.00000000
      88 -0.33333333  0.00000000  0.11111111       9  0.33333333  0.11111111  0.00000000
      89 -0.22222222  0.00000000  0.11111111       8  0.22222222  0.11111111  0.00000000
      90 -0.11111111  0.00000000  0.11111111       7  0.11111111  0.11111111  0.00000000
      91  0.00000000  0.11111111  0.11111111      26  0.00000000  0.11111111  0.11111111
      92  0.11111111  0.11111111  0.11111111      27  0.11111111  0.11111111  0.11111111
      93  0.22222222  0.11111111  0.11111111      28  0.22222222  0.11111111  0.11111111
      94  0.33333333  0.11111111  0.11111111      29  0.33333333  0.11111111  0.11111111
      95  0.44444444  0.11111111  0.11111111      30  0.44444444  0.11111111  0.11111111
      96 -0.44444444  0.11111111  0.11111111      30  0.44444444  0.11111111  0.11111111
      97 -0.33333333  0.11111111  0.11111111      29  0.33333333  0.11111111  0.11111111
      98 -0.22222222  0.11111111  0.11111111      28  0.22222222  0.11111111  0.11111111
      99 -0.11111111  0.11111111  0.11111111      27  0.11111111  0.11111111  0.11111111
     100  0.00000000  0.22222222  0.11111111      31  0.00000000  0.22222222  0.11111111
     101  0.11111111  0.22222222  0.11111111      32  0.11111111  0.22222222  0.11111111
     102  0.22222222  0.22222222  0.11111111      33  0.22222222  0.22222222  0.11111111
     103  0.33333333  0.22222222  0.11111111      34  0.33333333  0.11111111  0.22222222
     104  0.44444444  0.22222222  0.11111111      35  0.44444444  0.22222222  0.11111111
     105 -0.44444444  0.22222222  0.11111111      35  0.44444444  0.22222222  0.11111111
     106 -0.33333333  0.22222222  0.11111111      34  0.33333333  0.11111111  0.22222222
     107 -0.22222222  0.22222222  0.11111111      33  0.22222222  0.22222222  0.11111111
     108 -0.11111111  0.22222222  0.11111111      32  0.11111111  0.22222222  0.11111111
     109  0.00000000  0.33333333  0.11111111      36  0.00000000  0.33333333  0.11111111
     110  0.11111111  0.33333333  0.11111111      37  0.11111111  0.33333333  0.11111111
     111  0.22222222  0.33333333  0.11111111      38  0.22222222  0.11111111  0.33333333
     112  0.33333333  0.33333333  0.11111111      39  0.33333333  0.11111111  0.33333333
     113  0.44444444  0.33333333  0.11111111      40  0.44444444  0.33333333  0.11111111
     114 -0.44444444  0.33333333  0.11111111      40  0.44444444  0.33333333  0.11111111
     115 -0.33333333  0.33333333  0.11111111      39  0.33333333  0.11111111  0.33333333
     116 -0.22222222  0.33333333  0.11111111      38  0.22222222  0.11111111  0.33333333
     117 -0.11111111  0.33333333  0.11111111      37  0.11111111  0.33333333  0.11111111
     118  0.00000000  0.44444444  0.11111111      41  0.00000000  0.44444444  0.11111111
     119  0.11111111  0.44444444  0.11111111      42  0.11111111  0.11111111  0.44444444
     120  0.22222222  0.44444444  0.11111111      43  0.22222222  0.44444444  0.11111111
     121  0.33333333  0.44444444  0.11111111      44  0.33333333  0.44444444  0.11111111
     122  0.44444444  0.44444444  0.11111111      45  0.44444444  0.44444444  0.11111111
     123 -0.44444444  0.44444444  0.11111111      45  0.44444444  0.44444444  0.11111111
     124 -0.33333333  0.44444444  0.11111111      44  0.33333333  0.44444444  0.11111111
     125 -0.22222222  0.44444444  0.11111111      43  0.22222222  0.44444444  0.11111111
     126 -0.11111111  0.44444444  0.11111111      42  0.11111111  0.11111111  0.44444444
     127  0.00000000 -0.44444444  0.11111111      41  0.00000000  0.44444444  0.11111111
     128  0.11111111 -0.44444444  0.11111111      42  0.11111111  0.11111111  0.44444444
     129  0.22222222 -0.44444444  0.11111111      43  0.22222222  0.44444444  0.11111111
     130  0.33333333 -0.44444444  0.11111111      44  0.33333333  0.44444444  0.11111111
     131  0.44444444 -0.44444444  0.11111111      45  0.44444444  0.44444444  0.11111111
     132 -0.44444444 -0.44444444  0.11111111      45  0.44444444  0.44444444  0.11111111
     133 -0.33333333 -0.44444444  0.11111111      44  0.33333333  0.44444444  0.11111111
     134 -0.22222222 -0.44444444  0.11111111      43  0.22222222  0.44444444  0.11111111
     135 -0.11111111 -0.44444444  0.11111111      42  0.11111111  0.11111111  0.44444444
     136  0.00000000 -0.33333333  0.11111111      36  0.00000000  0.33333333  0.11111111
     137  0.11111111 -0.33333333  0.11111111      37  0.11111111  0.33333333  0.11111111
     138  0.22222222 -0.33333333  0.11111111      38  0.22222222  0.11111111  0.33333333
     139  0.33333333 -0.33333333  0.11111111      39  0.33333333  0.11111111  0.33333333
     140  0.44444444 -0.33333333  0.11111111      40  0.44444444  0.33333333  0.11111111
     141 -0.44444444 -0.33333333  0.11111111      40  0.44444444  0.33333333  0.11111111
     142 -0.33333333 -0.33333333  0.11111111      39  0.33333333  0.11111111  0.33333333
     143 -0.22222222 -0.33333333  0.11111111      38  0.22222222  0.11111111  0.33333333
     144 -0.11111111 -0.33333333  0.11111111      37  0.11111111  0.33333333  0.11111111
     145  0.00000000 -0.22222222  0.11111111      31  0.00000000  0.22222222  0.11111111
     146  0.11111111 -0.22222222  0.11111111      32  0.11111111  0.22222222  0.11111111
     147  0.22222222 -0.22222222  0.11111111      33  0.22222222  0.22222222  0.11111111
     148  0.33333333 -0.22222222  0.11111111      34  0.33333333  0.11111111  0.22222222
     149  0.44444444 -0.22222222  0.11111111      35  0.44444444  0.22222222  0.11111111
     150 -0.44444444 -0.22222222  0.11111111      35  0.44444444  0.22222222  0.11111111
     151 -0.33333333 -0.22222222  0.11111111      34  0.33333333  0.11111111  0.22222222
     152 -0.22222222 -0.22222222  0.11111111      33  0.22222222  0.22222222  0.11111111
     153 -0.11111111 -0.22222222  0.11111111      32  0.11111111  0.22222222  0.11111111
     154  0.00000000 -0.11111111  0.11111111      26  0.00000000  0.11111111  0.11111111
     155  0.11111111 -0.11111111  0.11111111      27  0.11111111  0.11111111  0.11111111
     156  0.22222222 -0.11111111  0.11111111      28  0.22222222  0.11111111  0.11111111
     157  0.33333333 -0.11111111  0.11111111      29  0.33333333  0.11111111  0.11111111
     158  0.44444444 -0.11111111  0.11111111      30  0.44444444  0.11111111  0.11111111
     159 -0.44444444 -0.11111111  0.11111111      30  0.44444444  0.11111111  0.11111111
     160 -0.33333333 -0.11111111  0.11111111      29  0.33333333  0.11111111  0.11111111
     161 -0.22222222 -0.11111111  0.11111111      28  0.22222222  0.11111111  0.11111111
     162 -0.11111111 -0.11111111  0.11111111      27  0.11111111  0.11111111  0.11111111
     163  0.00000000  0.00000000  0.22222222      11  0.00000000  0.22222222  0.00000000
     164  0.11111111  0.00000000  0.22222222      12  0.11111111  0.22222222  0.00000000
     165  0.22222222  0.00000000  0.22222222      13  0.22222222  0.22222222  0.00000000
     166  0.33333333  0.00000000  0.22222222      14  0.33333333  0.22222222  0.00000000
     167  0.44444444  0.00000000  0.22222222      15  0.44444444  0.22222222  0.00000000
     168 -0.44444444  0.00000000  0.22222222      15  0.44444444  0.22222222  0.00000000
     169 -0.33333333  0.00000000  0.22222222      14  0.33333333  0.22222222  0.00000000
     170 -0.22222222  0.00000000  0.22222222      13  0.22222222  0.22222222  0.00000000
     171 -0.11111111  0.00000000  0.22222222      12  0.11111111  0.22222222  0.00000000
     172  0.00000000  0.11111111  0.22222222      31  0.00000000  0.22222222  0.11111111
     173  0.11111111  0.11111111  0.22222222      32  0.11111111  0.22222222  0.11111111
     174  0.22222222  0.11111111  0.22222222      33  0.22222222  0.22222222  0.11111111
     175  0.33333333  0.11111111  0.22222222      34  0.33333333  0.11111111  0.22222222
     176  0.44444444  0.11111111  0.22222222      35  0.44444444  0.22222222  0.11111111
     177 -0.44444444  0.11111111  0.22222222      35  0.44444444  0.22222222  0.11111111
     178 -0.33333333  0.11111111  0.22222222      34  0.33333333  0.11111111  0.22222222
     179 -0.22222222  0.11111111  0.22222222      33  0.22222222  0.22222222  0.11111111
     180 -0.11111111  0.11111111  0.22222222      32  0.11111111  0.22222222  0.11111111
     181  0.00000000  0.22222222  0.22222222      46  0.00000000  0.22222222  0.22222222
     182  0.11111111  0.22222222  0.22222222      47  0.11111111  0.22222222  0.22222222
     183  0.22222222  0.22222222  0.22222222      48  0.22222222  0.22222222  0.22222222
     184  0.33333333  0.22222222  0.22222222      49  0.33333333  0.22222222  0.22222222
     185  0.44444444  0.22222222  0.22222222      50  0.44444444  0.22222222  0.22222222
     186 -0.44444444  0.22222222  0.22222222      50  0.44444444  0.22222222  0.22222222
     187 -0.33333333  0.22222222  0.22222222      49  0.33333333  0.22222222  0.22222222
     188 -0.22222222  0.22222222  0.22222222      48  0.22222222  0.22222222  0.22222222
     189 -0.11111111  0.22222222  0.22222222      47  0.11111111  0.22222222  0.22222222
     190  0.00000000  0.33333333  0.22222222      51  0.00000000  0.33333333  0.22222222
     191  0.11111111  0.33333333  0.22222222      52  0.11111111  0.33333333  0.22222222
     192  0.22222222  0.33333333  0.22222222      53  0.22222222  0.22222222  0.33333333
     193  0.33333333  0.33333333  0.22222222      54  0.33333333  0.33333333  0.22222222
     194  0.44444444  0.33333333  0.22222222      55  0.44444444  0.33333333  0.22222222
     195 -0.44444444  0.33333333  0.22222222      55  0.44444444  0.33333333  0.22222222
     196 -0.33333333  0.33333333  0.22222222      54  0.33333333  0.33333333  0.22222222
     197 -0.22222222  0.33333333  0.22222222      53  0.22222222  0.22222222  0.33333333
     198 -0.11111111  0.33333333  0.22222222      52  0.11111111  0.33333333  0.22222222
     199  0.00000000  0.44444444  0.22222222      56  0.00000000  0.44444444  0.22222222
     200  0.11111111  0.44444444  0.22222222      57  0.11111111  0.44444444  0.22222222
     201  0.22222222  0.44444444  0.22222222      58  0.22222222  0.44444444  0.22222222
     202  0.33333333  0.44444444  0.22222222      59  0.33333333  0.44444444  0.22222222
     203  0.44444444  0.44444444  0.22222222      60  0.44444444  0.44444444  0.22222222
     204 -0.44444444  0.44444444  0.22222222      60  0.44444444  0.44444444  0.22222222
     205 -0.33333333  0.44444444  0.22222222      59  0.33333333  0.44444444  0.22222222
     206 -0.22222222  0.44444444  0.22222222      58  0.22222222  0.44444444  0.22222222
     207 -0.11111111  0.44444444  0.22222222      57  0.11111111  0.44444444  0.22222222
     208  0.00000000 -0.44444444  0.22222222      56  0.00000000  0.44444444  0.22222222
     209  0.11111111 -0.44444444  0.22222222      57  0.11111111  0.44444444  0.22222222
     210  0.22222222 -0.44444444  0.22222222      58  0.22222222  0.44444444  0.22222222
     211  0.33333333 -0.44444444  0.22222222      59  0.33333333  0.44444444  0.22222222
     212  0.44444444 -0.44444444  0.22222222      60  0.44444444  0.44444444  0.22222222
     213 -0.44444444 -0.44444444  0.22222222      60  0.44444444  0.44444444  0.22222222
     214 -0.33333333 -0.44444444  0.22222222      59  0.33333333  0.44444444  0.22222222
     215 -0.22222222 -0.44444444  0.22222222      58  0.22222222  0.44444444  0.22222222
     216 -0.11111111 -0.44444444  0.22222222      57  0.11111111  0.44444444  0.22222222
     217  0.00000000 -0.33333333  0.22222222      51  0.00000000  0.33333333  0.22222222
     218  0.11111111 -0.33333333  0.22222222      52  0.11111111  0.33333333  0.22222222
     219  0.22222222 -0.33333333  0.22222222      53  0.22222222  0.22222222  0.33333333
     220  0.33333333 -0.33333333  0.22222222      54  0.33333333  0.33333333  0.22222222
     221  0.44444444 -0.33333333  0.22222222      55  0.44444444  0.33333333  0.22222222
     222 -0.44444444 -0.33333333  0.22222222      55  0.44444444  0.33333333  0.22222222
     223 -0.33333333 -0.33333333  0.22222222      54  0.33333333  0.33333333  0.22222222
     224 -0.22222222 -0.33333333  0.22222222      53  0.22222222  0.22222222  0.33333333
     225 -0.11111111 -0.33333333  0.22222222      52  0.11111111  0.33333333  0.22222222
     226  0.00000000 -0.22222222  0.22222222      46  0.00000000  0.22222222  0.22222222
     227  0.11111111 -0.22222222  0.22222222      47  0.11111111  0.22222222  0.22222222
     228  0.22222222 -0.22222222  0.22222222      48  0.22222222  0.22222222  0.22222222
     229  0.33333333 -0.22222222  0.22222222      49  0.33333333  0.22222222  0.22222222
     230  0.44444444 -0.22222222  0.22222222      50  0.44444444  0.22222222  0.22222222
     231 -0.44444444 -0.22222222  0.22222222      50  0.44444444  0.22222222  0.22222222
     232 -0.33333333 -0.22222222  0.22222222      49  0.33333333  0.22222222  0.22222222
     233 -0.22222222 -0.22222222  0.22222222      48  0.22222222  0.22222222  0.22222222
     234 -0.11111111 -0.22222222  0.22222222      47  0.11111111  0.22222222  0.22222222
     235  0.00000000 -0.11111111  0.22222222      31  0.00000000  0.22222222  0.11111111
     236  0.11111111 -0.11111111  0.22222222      32  0.11111111  0.22222222  0.11111111
     237  0.22222222 -0.11111111  0.22222222      33  0.22222222  0.22222222  0.11111111
     238  0.33333333 -0.11111111  0.22222222      34  0.33333333  0.11111111  0.22222222
     239  0.44444444 -0.11111111  0.22222222      35  0.44444444  0.22222222  0.11111111
     240 -0.44444444 -0.11111111  0.22222222      35  0.44444444  0.22222222  0.11111111
     241 -0.33333333 -0.11111111  0.22222222      34  0.33333333  0.11111111  0.22222222
     242 -0.22222222 -0.11111111  0.22222222      33  0.22222222  0.22222222  0.11111111
     243 -0.11111111 -0.11111111  0.22222222      32  0.11111111  0.22222222  0.11111111
     244  0.00000000  0.00000000  0.33333333      16  0.00000000  0.33333333  0.00000000
     245  0.11111111  0.00000000  0.33333333      17  0.11111111  0.33333333  0.00000000
     246  0.22222222  0.00000000  0.33333333      18  0.22222222  0.33333333  0.00000000
     247  0.33333333  0.00000000  0.33333333      19  0.33333333  0.33333333  0.00000000
     248  0.44444444  0.00000000  0.33333333      20  0.44444444  0.33333333  0.00000000
     249 -0.44444444  0.00000000  0.33333333      20  0.44444444  0.33333333  0.00000000
     250 -0.33333333  0.00000000  0.33333333      19  0.33333333  0.33333333  0.00000000
     251 -0.22222222  0.00000000  0.33333333      18  0.22222222  0.33333333  0.00000000
     252 -0.11111111  0.00000000  0.33333333      17  0.11111111  0.33333333  0.00000000
     253  0.00000000  0.11111111  0.33333333      36  0.00000000  0.33333333  0.11111111
     254  0.11111111  0.11111111  0.33333333      37  0.11111111  0.33333333  0.11111111
     255  0.22222222  0.11111111  0.33333333      38  0.22222222  0.11111111  0.33333333
     256  0.33333333  0.11111111  0.33333333      39  0.33333333  0.11111111  0.33333333
     257  0.44444444  0.11111111  0.33333333      40  0.44444444  0.33333333  0.11111111
     258 -0.44444444  0.11111111  0.33333333      40  0.44444444  0.33333333  0.11111111
     259 -0.33333333  0.11111111  0.33333333      39  0.33333333  0.11111111  0.33333333
     260 -0.22222222  0.11111111  0.33333333      38  0.22222222  0.11111111  0.33333333
     261 -0.11111111  0.11111111  0.33333333      37  0.11111111  0.33333333  0.11111111
     262  0.00000000  0.22222222  0.33333333      51  0.00000000  0.33333333  0.22222222
     263  0.11111111  0.22222222  0.33333333      52  0.11111111  0.33333333  0.22222222
     264  0.22222222  0.22222222  0.33333333      53  0.22222222  0.22222222  0.33333333
     265  0.33333333  0.22222222  0.33333333      54  0.33333333  0.33333333  0.22222222
     266  0.44444444  0.22222222  0.33333333      55  0.44444444  0.33333333  0.22222222
     267 -0.44444444  0.22222222  0.33333333      55  0.44444444  0.33333333  0.22222222
     268 -0.33333333  0.22222222  0.33333333      54  0.33333333  0.33333333  0.22222222
     269 -0.22222222  0.22222222  0.33333333      53  0.22222222  0.22222222  0.33333333
     270 -0.11111111  0.22222222  0.33333333      52  0.11111111  0.33333333  0.22222222
     271  0.00000000  0.33333333  0.33333333      61  0.00000000  0.33333333  0.33333333
     272  0.11111111  0.33333333  0.33333333      62  0.11111111  0.33333333  0.33333333
     273  0.22222222  0.33333333  0.33333333      63  0.22222222  0.33333333  0.33333333
     274  0.33333333  0.33333333  0.33333333      64  0.33333333  0.33333333  0.33333333
     275  0.44444444  0.33333333  0.33333333      65  0.44444444  0.33333333  0.33333333
     276 -0.44444444  0.33333333  0.33333333      65  0.44444444  0.33333333  0.33333333
     277 -0.33333333  0.33333333  0.33333333      64  0.33333333  0.33333333  0.33333333
     278 -0.22222222  0.33333333  0.33333333      63  0.22222222  0.33333333  0.33333333
     279 -0.11111111  0.33333333  0.33333333      62  0.11111111  0.33333333  0.33333333
     280  0.00000000  0.44444444  0.33333333      66  0.00000000  0.44444444  0.33333333
     281  0.11111111  0.44444444  0.33333333      67  0.11111111  0.44444444  0.33333333
     282  0.22222222  0.44444444  0.33333333      68  0.22222222  0.44444444  0.33333333
     283  0.33333333  0.44444444  0.33333333      69  0.33333333  0.44444444  0.33333333
     284  0.44444444  0.44444444  0.33333333      70  0.44444444  0.44444444  0.33333333
     285 -0.44444444  0.44444444  0.33333333      70  0.44444444  0.44444444  0.33333333
     286 -0.33333333  0.44444444  0.33333333      69  0.33333333  0.44444444  0.33333333
     287 -0.22222222  0.44444444  0.33333333      68  0.22222222  0.44444444  0.33333333
     288 -0.11111111  0.44444444  0.33333333      67  0.11111111  0.44444444  0.33333333
     289  0.00000000 -0.44444444  0.33333333      66  0.00000000  0.44444444  0.33333333
     290  0.11111111 -0.44444444  0.33333333      67  0.11111111  0.44444444  0.33333333
     291  0.22222222 -0.44444444  0.33333333      68  0.22222222  0.44444444  0.33333333
     292  0.33333333 -0.44444444  0.33333333      69  0.33333333  0.44444444  0.33333333
     293  0.44444444 -0.44444444  0.33333333      70  0.44444444  0.44444444  0.33333333
     294 -0.44444444 -0.44444444  0.33333333      70  0.44444444  0.44444444  0.33333333
     295 -0.33333333 -0.44444444  0.33333333      69  0.33333333  0.44444444  0.33333333
     296 -0.22222222 -0.44444444  0.33333333      68  0.22222222  0.44444444  0.33333333
     297 -0.11111111 -0.44444444  0.33333333      67  0.11111111  0.44444444  0.33333333
     298  0.00000000 -0.33333333  0.33333333      61  0.00000000  0.33333333  0.33333333
     299  0.11111111 -0.33333333  0.33333333      62  0.11111111  0.33333333  0.33333333
     300  0.22222222 -0.33333333  0.33333333      63  0.22222222  0.33333333  0.33333333
     301  0.33333333 -0.33333333  0.33333333      64  0.33333333  0.33333333  0.33333333
     302  0.44444444 -0.33333333  0.33333333      65  0.44444444  0.33333333  0.33333333
     303 -0.44444444 -0.33333333  0.33333333      65  0.44444444  0.33333333  0.33333333
     304 -0.33333333 -0.33333333  0.33333333      64  0.33333333  0.33333333  0.33333333
     305 -0.22222222 -0.33333333  0.33333333      63  0.22222222  0.33333333  0.33333333
     306 -0.11111111 -0.33333333  0.33333333      62  0.11111111  0.33333333  0.33333333
     307  0.00000000 -0.22222222  0.33333333      51  0.00000000  0.33333333  0.22222222
     308  0.11111111 -0.22222222  0.33333333      52  0.11111111  0.33333333  0.22222222
     309  0.22222222 -0.22222222  0.33333333      53  0.22222222  0.22222222  0.33333333
     310  0.33333333 -0.22222222  0.33333333      54  0.33333333  0.33333333  0.22222222
     311  0.44444444 -0.22222222  0.33333333      55  0.44444444  0.33333333  0.22222222
     312 -0.44444444 -0.22222222  0.33333333      55  0.44444444  0.33333333  0.22222222
     313 -0.33333333 -0.22222222  0.33333333      54  0.33333333  0.33333333  0.22222222
     314 -0.22222222 -0.22222222  0.33333333      53  0.22222222  0.22222222  0.33333333
     315 -0.11111111 -0.22222222  0.33333333      52  0.11111111  0.33333333  0.22222222
     316  0.00000000 -0.11111111  0.33333333      36  0.00000000  0.33333333  0.11111111
     317  0.11111111 -0.11111111  0.33333333      37  0.11111111  0.33333333  0.11111111
     318  0.22222222 -0.11111111  0.33333333      38  0.22222222  0.11111111  0.33333333
     319  0.33333333 -0.11111111  0.33333333      39  0.33333333  0.11111111  0.33333333
     320  0.44444444 -0.11111111  0.33333333      40  0.44444444  0.33333333  0.11111111
     321 -0.44444444 -0.11111111  0.33333333      40  0.44444444  0.33333333  0.11111111
     322 -0.33333333 -0.11111111  0.33333333      39  0.33333333  0.11111111  0.33333333
     323 -0.22222222 -0.11111111  0.33333333      38  0.22222222  0.11111111  0.33333333
     324 -0.11111111 -0.11111111  0.33333333      37  0.11111111  0.33333333  0.11111111
     325  0.00000000  0.00000000  0.44444444      21  0.00000000  0.44444444  0.00000000
     326  0.11111111  0.00000000  0.44444444      22  0.11111111  0.44444444  0.00000000
     327  0.22222222  0.00000000  0.44444444      23  0.22222222  0.44444444  0.00000000
     328  0.33333333  0.00000000  0.44444444      24  0.33333333  0.44444444  0.00000000
     329  0.44444444  0.00000000  0.44444444      25  0.44444444  0.44444444  0.00000000
     330 -0.44444444  0.00000000  0.44444444      25  0.44444444  0.44444444  0.00000000
     331 -0.33333333  0.00000000  0.44444444      24  0.33333333  0.44444444  0.00000000
     332 -0.22222222  0.00000000  0.44444444      23  0.22222222  0.44444444  0.00000000
     333 -0.11111111  0.00000000  0.44444444      22  0.11111111  0.44444444  0.00000000
     334  0.00000000  0.11111111  0.44444444      41  0.00000000  0.44444444  0.11111111
     335  0.11111111  0.11111111  0.44444444      42  0.11111111  0.11111111  0.44444444
     336  0.22222222  0.11111111  0.44444444      43  0.22222222  0.44444444  0.11111111
     337  0.33333333  0.11111111  0.44444444      44  0.33333333  0.44444444  0.11111111
     338  0.44444444  0.11111111  0.44444444      45  0.44444444  0.44444444  0.11111111
     339 -0.44444444  0.11111111  0.44444444      45  0.44444444  0.44444444  0.11111111
     340 -0.33333333  0.11111111  0.44444444      44  0.33333333  0.44444444  0.11111111
     341 -0.22222222  0.11111111  0.44444444      43  0.22222222  0.44444444  0.11111111
     342 -0.11111111  0.11111111  0.44444444      42  0.11111111  0.11111111  0.44444444
     343  0.00000000  0.22222222  0.44444444      56  0.00000000  0.44444444  0.22222222
     344  0.11111111  0.22222222  0.44444444      57  0.11111111  0.44444444  0.22222222
     345  0.22222222  0.22222222  0.44444444      58  0.22222222  0.44444444  0.22222222
     346  0.33333333  0.22222222  0.44444444      59  0.33333333  0.44444444  0.22222222
     347  0.44444444  0.22222222  0.44444444      60  0.44444444  0.44444444  0.22222222
     348 -0.44444444  0.22222222  0.44444444      60  0.44444444  0.44444444  0.22222222
     349 -0.33333333  0.22222222  0.44444444      59  0.33333333  0.44444444  0.22222222
     350 -0.22222222  0.22222222  0.44444444      58  0.22222222  0.44444444  0.22222222
     351 -0.11111111  0.22222222  0.44444444      57  0.11111111  0.44444444  0.22222222
     352  0.00000000  0.33333333  0.44444444      66  0.00000000  0.44444444  0.33333333
     353  0.11111111  0.33333333  0.44444444      67  0.11111111  0.44444444  0.33333333
     354  0.22222222  0.33333333  0.44444444      68  0.22222222  0.44444444  0.33333333
     355  0.33333333  0.33333333  0.44444444      69  0.33333333  0.44444444  0.33333333
     356  0.44444444  0.33333333  0.44444444      70  0.44444444  0.44444444  0.33333333
     357 -0.44444444  0.33333333  0.44444444      70  0.44444444  0.44444444  0.33333333
     358 -0.33333333  0.33333333  0.44444444      69  0.33333333  0.44444444  0.33333333
     359 -0.22222222  0.33333333  0.44444444      68  0.22222222  0.44444444  0.33333333
     360 -0.11111111  0.33333333  0.44444444      67  0.11111111  0.44444444  0.33333333
     361  0.00000000  0.44444444  0.44444444      71  0.00000000  0.44444444  0.44444444
     362  0.11111111  0.44444444  0.44444444      72  0.11111111  0.44444444  0.44444444
     363  0.22222222  0.44444444  0.44444444      73  0.22222222  0.44444444  0.44444444
     364  0.33333333  0.44444444  0.44444444      74  0.33333333  0.44444444  0.44444444
     365  0.44444444  0.44444444  0.44444444      75  0.44444444  0.44444444  0.44444444
     366 -0.44444444  0.44444444  0.44444444      75  0.44444444  0.44444444  0.44444444
     367 -0.33333333  0.44444444  0.44444444      74  0.33333333  0.44444444  0.44444444
     368 -0.22222222  0.44444444  0.44444444      73  0.22222222  0.44444444  0.44444444
     369 -0.11111111  0.44444444  0.44444444      72  0.11111111  0.44444444  0.44444444
     370  0.00000000 -0.44444444  0.44444444      71  0.00000000  0.44444444  0.44444444
     371  0.11111111 -0.44444444  0.44444444      72  0.11111111  0.44444444  0.44444444
     372  0.22222222 -0.44444444  0.44444444      73  0.22222222  0.44444444  0.44444444
     373  0.33333333 -0.44444444  0.44444444      74  0.33333333  0.44444444  0.44444444
     374  0.44444444 -0.44444444  0.44444444      75  0.44444444  0.44444444  0.44444444
     375 -0.44444444 -0.44444444  0.44444444      75  0.44444444  0.44444444  0.44444444
     376 -0.33333333 -0.44444444  0.44444444      74  0.33333333  0.44444444  0.44444444
     377 -0.22222222 -0.44444444  0.44444444      73  0.22222222  0.44444444  0.44444444
     378 -0.11111111 -0.44444444  0.44444444      72  0.11111111  0.44444444  0.44444444
     379  0.00000000 -0.33333333  0.44444444      66  0.00000000  0.44444444  0.33333333
     380  0.11111111 -0.33333333  0.44444444      67  0.11111111  0.44444444  0.33333333
     381  0.22222222 -0.33333333  0.44444444      68  0.22222222  0.44444444  0.33333333
     382  0.33333333 -0.33333333  0.44444444      69  0.33333333  0.44444444  0.33333333
     383  0.44444444 -0.33333333  0.44444444      70  0.44444444  0.44444444  0.33333333
     384 -0.44444444 -0.33333333  0.44444444      70  0.44444444  0.44444444  0.33333333
     385 -0.33333333 -0.33333333  0.44444444      69  0.33333333  0.44444444  0.33333333
     386 -0.22222222 -0.33333333  0.44444444      68  0.22222222  0.44444444  0.33333333
     387 -0.11111111 -0.33333333  0.44444444      67  0.11111111  0.44444444  0.33333333
     388  0.00000000 -0.22222222  0.44444444      56  0.00000000  0.44444444  0.22222222
     389  0.11111111 -0.22222222  0.44444444      57  0.11111111  0.44444444  0.22222222
     390  0.22222222 -0.22222222  0.44444444      58  0.22222222  0.44444444  0.22222222
     391  0.33333333 -0.22222222  0.44444444      59  0.33333333  0.44444444  0.22222222
     392  0.44444444 -0.22222222  0.44444444      60  0.44444444  0.44444444  0.22222222
     393 -0.44444444 -0.22222222  0.44444444      60  0.44444444  0.44444444  0.22222222
     394 -0.33333333 -0.22222222  0.44444444      59  0.33333333  0.44444444  0.22222222
     395 -0.22222222 -0.22222222  0.44444444      58  0.22222222  0.44444444  0.22222222
     396 -0.11111111 -0.22222222  0.44444444      57  0.11111111  0.44444444  0.22222222
     397  0.00000000 -0.11111111  0.44444444      41  0.00000000  0.44444444  0.11111111
     398  0.11111111 -0.11111111  0.44444444      42  0.11111111  0.11111111  0.44444444
     399  0.22222222 -0.11111111  0.44444444      43  0.22222222  0.44444444  0.11111111
     400  0.33333333 -0.11111111  0.44444444      44  0.33333333  0.44444444  0.11111111
     401  0.44444444 -0.11111111  0.44444444      45  0.44444444  0.44444444  0.11111111
     402 -0.44444444 -0.11111111  0.44444444      45  0.44444444  0.44444444  0.11111111
     403 -0.33333333 -0.11111111  0.44444444      44  0.33333333  0.44444444  0.11111111
     404 -0.22222222 -0.11111111  0.44444444      43  0.22222222  0.44444444  0.11111111
     405 -0.11111111 -0.11111111  0.44444444      42  0.11111111  0.11111111  0.44444444
     406  0.00000000  0.00000000 -0.44444444      21  0.00000000  0.44444444  0.00000000
     407  0.11111111  0.00000000 -0.44444444      22  0.11111111  0.44444444  0.00000000
     408  0.22222222  0.00000000 -0.44444444      23  0.22222222  0.44444444  0.00000000
     409  0.33333333  0.00000000 -0.44444444      24  0.33333333  0.44444444  0.00000000
     410  0.44444444  0.00000000 -0.44444444      25  0.44444444  0.44444444  0.00000000
     411 -0.44444444  0.00000000 -0.44444444      25  0.44444444  0.44444444  0.00000000
     412 -0.33333333  0.00000000 -0.44444444      24  0.33333333  0.44444444  0.00000000
     413 -0.22222222  0.00000000 -0.44444444      23  0.22222222  0.44444444  0.00000000
     414 -0.11111111  0.00000000 -0.44444444      22  0.11111111  0.44444444  0.00000000
     415  0.00000000  0.11111111 -0.44444444      41  0.00000000  0.44444444  0.11111111
     416  0.11111111  0.11111111 -0.44444444      42  0.11111111  0.11111111  0.44444444
     417  0.22222222  0.11111111 -0.44444444      43  0.22222222  0.44444444  0.11111111
     418  0.33333333  0.11111111 -0.44444444      44  0.33333333  0.44444444  0.11111111
     419  0.44444444  0.11111111 -0.44444444      45  0.44444444  0.44444444  0.11111111
     420 -0.44444444  0.11111111 -0.44444444      45  0.44444444  0.44444444  0.11111111
     421 -0.33333333  0.11111111 -0.44444444      44  0.33333333  0.44444444  0.11111111
     422 -0.22222222  0.11111111 -0.44444444      43  0.22222222  0.44444444  0.11111111
     423 -0.11111111  0.11111111 -0.44444444      42  0.11111111  0.11111111  0.44444444
     424  0.00000000  0.22222222 -0.44444444      56  0.00000000  0.44444444  0.22222222
     425  0.11111111  0.22222222 -0.44444444      57  0.11111111  0.44444444  0.22222222
     426  0.22222222  0.22222222 -0.44444444      58  0.22222222  0.44444444  0.22222222
     427  0.33333333  0.22222222 -0.44444444      59  0.33333333  0.44444444  0.22222222
     428  0.44444444  0.22222222 -0.44444444      60  0.44444444  0.44444444  0.22222222
     429 -0.44444444  0.22222222 -0.44444444      60  0.44444444  0.44444444  0.22222222
     430 -0.33333333  0.22222222 -0.44444444      59  0.33333333  0.44444444  0.22222222
     431 -0.22222222  0.22222222 -0.44444444      58  0.22222222  0.44444444  0.22222222
     432 -0.11111111  0.22222222 -0.44444444      57  0.11111111  0.44444444  0.22222222
     433  0.00000000  0.33333333 -0.44444444      66  0.00000000  0.44444444  0.33333333
     434  0.11111111  0.33333333 -0.44444444      67  0.11111111  0.44444444  0.33333333
     435  0.22222222  0.33333333 -0.44444444      68  0.22222222  0.44444444  0.33333333
     436  0.33333333  0.33333333 -0.44444444      69  0.33333333  0.44444444  0.33333333
     437  0.44444444  0.33333333 -0.44444444      70  0.44444444  0.44444444  0.33333333
     438 -0.44444444  0.33333333 -0.44444444      70  0.44444444  0.44444444  0.33333333
     439 -0.33333333  0.33333333 -0.44444444      69  0.33333333  0.44444444  0.33333333
     440 -0.22222222  0.33333333 -0.44444444      68  0.22222222  0.44444444  0.33333333
     441 -0.11111111  0.33333333 -0.44444444      67  0.11111111  0.44444444  0.33333333
     442  0.00000000  0.44444444 -0.44444444      71  0.00000000  0.44444444  0.44444444
     443  0.11111111  0.44444444 -0.44444444      72  0.11111111  0.44444444  0.44444444
     444  0.22222222  0.44444444 -0.44444444      73  0.22222222  0.44444444  0.44444444
     445  0.33333333  0.44444444 -0.44444444      74  0.33333333  0.44444444  0.44444444
     446  0.44444444  0.44444444 -0.44444444      75  0.44444444  0.44444444  0.44444444
     447 -0.44444444  0.44444444 -0.44444444      75  0.44444444  0.44444444  0.44444444
     448 -0.33333333  0.44444444 -0.44444444      74  0.33333333  0.44444444  0.44444444
     449 -0.22222222  0.44444444 -0.44444444      73  0.22222222  0.44444444  0.44444444
     450 -0.11111111  0.44444444 -0.44444444      72  0.11111111  0.44444444  0.44444444
     451  0.00000000 -0.44444444 -0.44444444      71  0.00000000  0.44444444  0.44444444
     452  0.11111111 -0.44444444 -0.44444444      72  0.11111111  0.44444444  0.44444444
     453  0.22222222 -0.44444444 -0.44444444      73  0.22222222  0.44444444  0.44444444
     454  0.33333333 -0.44444444 -0.44444444      74  0.33333333  0.44444444  0.44444444
     455  0.44444444 -0.44444444 -0.44444444      75  0.44444444  0.44444444  0.44444444
     456 -0.44444444 -0.44444444 -0.44444444      75  0.44444444  0.44444444  0.44444444
     457 -0.33333333 -0.44444444 -0.44444444      74  0.33333333  0.44444444  0.44444444
     458 -0.22222222 -0.44444444 -0.44444444      73  0.22222222  0.44444444  0.44444444
     459 -0.11111111 -0.44444444 -0.44444444      72  0.11111111  0.44444444  0.44444444
     460  0.00000000 -0.33333333 -0.44444444      66  0.00000000  0.44444444  0.33333333
     461  0.11111111 -0.33333333 -0.44444444      67  0.11111111  0.44444444  0.33333333
     462  0.22222222 -0.33333333 -0.44444444      68  0.22222222  0.44444444  0.33333333
     463  0.33333333 -0.33333333 -0.44444444      69  0.33333333  0.44444444  0.33333333
     464  0.44444444 -0.33333333 -0.44444444      70  0.44444444  0.44444444  0.33333333
     465 -0.44444444 -0.33333333 -0.44444444      70  0.44444444  0.44444444  0.33333333
     466 -0.33333333 -0.33333333 -0.44444444      69  0.33333333  0.44444444  0.33333333
     467 -0.22222222 -0.33333333 -0.44444444      68  0.22222222  0.44444444  0.33333333
     468 -0.11111111 -0.33333333 -0.44444444      67  0.11111111  0.44444444  0.33333333
     469  0.00000000 -0.22222222 -0.44444444      56  0.00000000  0.44444444  0.22222222
     470  0.11111111 -0.22222222 -0.44444444      57  0.11111111  0.44444444  0.22222222
     471  0.22222222 -0.22222222 -0.44444444      58  0.22222222  0.44444444  0.22222222
     472  0.33333333 -0.22222222 -0.44444444      59  0.33333333  0.44444444  0.22222222
     473  0.44444444 -0.22222222 -0.44444444      60  0.44444444  0.44444444  0.22222222
     474 -0.44444444 -0.22222222 -0.44444444      60  0.44444444  0.44444444  0.22222222
     475 -0.33333333 -0.22222222 -0.44444444      59  0.33333333  0.44444444  0.22222222
     476 -0.22222222 -0.22222222 -0.44444444      58  0.22222222  0.44444444  0.22222222
     477 -0.11111111 -0.22222222 -0.44444444      57  0.11111111  0.44444444  0.22222222
     478  0.00000000 -0.11111111 -0.44444444      41  0.00000000  0.44444444  0.11111111
     479  0.11111111 -0.11111111 -0.44444444      42  0.11111111  0.11111111  0.44444444
     480  0.22222222 -0.11111111 -0.44444444      43  0.22222222  0.44444444  0.11111111
     481  0.33333333 -0.11111111 -0.44444444      44  0.33333333  0.44444444  0.11111111
     482  0.44444444 -0.11111111 -0.44444444      45  0.44444444  0.44444444  0.11111111
     483 -0.44444444 -0.11111111 -0.44444444      45  0.44444444  0.44444444  0.11111111
     484 -0.33333333 -0.11111111 -0.44444444      44  0.33333333  0.44444444  0.11111111
     485 -0.22222222 -0.11111111 -0.44444444      43  0.22222222  0.44444444  0.11111111
     486 -0.11111111 -0.11111111 -0.44444444      42  0.11111111  0.11111111  0.44444444
     487  0.00000000  0.00000000 -0.33333333      16  0.00000000  0.33333333  0.00000000
     488  0.11111111  0.00000000 -0.33333333      17  0.11111111  0.33333333  0.00000000
     489  0.22222222  0.00000000 -0.33333333      18  0.22222222  0.33333333  0.00000000
     490  0.33333333  0.00000000 -0.33333333      19  0.33333333  0.33333333  0.00000000
     491  0.44444444  0.00000000 -0.33333333      20  0.44444444  0.33333333  0.00000000
     492 -0.44444444  0.00000000 -0.33333333      20  0.44444444  0.33333333  0.00000000
     493 -0.33333333  0.00000000 -0.33333333      19  0.33333333  0.33333333  0.00000000
     494 -0.22222222  0.00000000 -0.33333333      18  0.22222222  0.33333333  0.00000000
     495 -0.11111111  0.00000000 -0.33333333      17  0.11111111  0.33333333  0.00000000
     496  0.00000000  0.11111111 -0.33333333      36  0.00000000  0.33333333  0.11111111
     497  0.11111111  0.11111111 -0.33333333      37  0.11111111  0.33333333  0.11111111
     498  0.22222222  0.11111111 -0.33333333      38  0.22222222  0.11111111  0.33333333
     499  0.33333333  0.11111111 -0.33333333      39  0.33333333  0.11111111  0.33333333
     500  0.44444444  0.11111111 -0.33333333      40  0.44444444  0.33333333  0.11111111
     501 -0.44444444  0.11111111 -0.33333333      40  0.44444444  0.33333333  0.11111111
     502 -0.33333333  0.11111111 -0.33333333      39  0.33333333  0.11111111  0.33333333
     503 -0.22222222  0.11111111 -0.33333333      38  0.22222222  0.11111111  0.33333333
     504 -0.11111111  0.11111111 -0.33333333      37  0.11111111  0.33333333  0.11111111
     505  0.00000000  0.22222222 -0.33333333      51  0.00000000  0.33333333  0.22222222
     506  0.11111111  0.22222222 -0.33333333      52  0.11111111  0.33333333  0.22222222
     507  0.22222222  0.22222222 -0.33333333      53  0.22222222  0.22222222  0.33333333
     508  0.33333333  0.22222222 -0.33333333      54  0.33333333  0.33333333  0.22222222
     509  0.44444444  0.22222222 -0.33333333      55  0.44444444  0.33333333  0.22222222
     510 -0.44444444  0.22222222 -0.33333333      55  0.44444444  0.33333333  0.22222222
     511 -0.33333333  0.22222222 -0.33333333      54  0.33333333  0.33333333  0.22222222
     512 -0.22222222  0.22222222 -0.33333333      53  0.22222222  0.22222222  0.33333333
     513 -0.11111111  0.22222222 -0.33333333      52  0.11111111  0.33333333  0.22222222
     514  0.00000000  0.33333333 -0.33333333      61  0.00000000  0.33333333  0.33333333
     515  0.11111111  0.33333333 -0.33333333      62  0.11111111  0.33333333  0.33333333
     516  0.22222222  0.33333333 -0.33333333      63  0.22222222  0.33333333  0.33333333
     517  0.33333333  0.33333333 -0.33333333      64  0.33333333  0.33333333  0.33333333
     518  0.44444444  0.33333333 -0.33333333      65  0.44444444  0.33333333  0.33333333
     519 -0.44444444  0.33333333 -0.33333333      65  0.44444444  0.33333333  0.33333333
     520 -0.33333333  0.33333333 -0.33333333      64  0.33333333  0.33333333  0.33333333
     521 -0.22222222  0.33333333 -0.33333333      63  0.22222222  0.33333333  0.33333333
     522 -0.11111111  0.33333333 -0.33333333      62  0.11111111  0.33333333  0.33333333
     523  0.00000000  0.44444444 -0.33333333      66  0.00000000  0.44444444  0.33333333
     524  0.11111111  0.44444444 -0.33333333      67  0.11111111  0.44444444  0.33333333
     525  0.22222222  0.44444444 -0.33333333      68  0.22222222  0.44444444  0.33333333
     526  0.33333333  0.44444444 -0.33333333      69  0.33333333  0.44444444  0.33333333
     527  0.44444444  0.44444444 -0.33333333      70  0.44444444  0.44444444  0.33333333
     528 -0.44444444  0.44444444 -0.33333333      70  0.44444444  0.44444444  0.33333333
     529 -0.33333333  0.44444444 -0.33333333      69  0.33333333  0.44444444  0.33333333
     530 -0.22222222  0.44444444 -0.33333333      68  0.22222222  0.44444444  0.33333333
     531 -0.11111111  0.44444444 -0.33333333      67  0.11111111  0.44444444  0.33333333
     532  0.00000000 -0.44444444 -0.33333333      66  0.00000000  0.44444444  0.33333333
     533  0.11111111 -0.44444444 -0.33333333      67  0.11111111  0.44444444  0.33333333
     534  0.22222222 -0.44444444 -0.33333333      68  0.22222222  0.44444444  0.33333333
     535  0.33333333 -0.44444444 -0.33333333      69  0.33333333  0.44444444  0.33333333
     536  0.44444444 -0.44444444 -0.33333333      70  0.44444444  0.44444444  0.33333333
     537 -0.44444444 -0.44444444 -0.33333333      70  0.44444444  0.44444444  0.33333333
     538 -0.33333333 -0.44444444 -0.33333333      69  0.33333333  0.44444444  0.33333333
     539 -0.22222222 -0.44444444 -0.33333333      68  0.22222222  0.44444444  0.33333333
     540 -0.11111111 -0.44444444 -0.33333333      67  0.11111111  0.44444444  0.33333333
     541  0.00000000 -0.33333333 -0.33333333      61  0.00000000  0.33333333  0.33333333
     542  0.11111111 -0.33333333 -0.33333333      62  0.11111111  0.33333333  0.33333333
     543  0.22222222 -0.33333333 -0.33333333      63  0.22222222  0.33333333  0.33333333
     544  0.33333333 -0.33333333 -0.33333333      64  0.33333333  0.33333333  0.33333333
     545  0.44444444 -0.33333333 -0.33333333      65  0.44444444  0.33333333  0.33333333
     546 -0.44444444 -0.33333333 -0.33333333      65  0.44444444  0.33333333  0.33333333
     547 -0.33333333 -0.33333333 -0.33333333      64  0.33333333  0.33333333  0.33333333
     548 -0.22222222 -0.33333333 -0.33333333      63  0.22222222  0.33333333  0.33333333
     549 -0.11111111 -0.33333333 -0.33333333      62  0.11111111  0.33333333  0.33333333
     550  0.00000000 -0.22222222 -0.33333333      51  0.00000000  0.33333333  0.22222222
     551  0.11111111 -0.22222222 -0.33333333      52  0.11111111  0.33333333  0.22222222
     552  0.22222222 -0.22222222 -0.33333333      53  0.22222222  0.22222222  0.33333333
     553  0.33333333 -0.22222222 -0.33333333      54  0.33333333  0.33333333  0.22222222
     554  0.44444444 -0.22222222 -0.33333333      55  0.44444444  0.33333333  0.22222222
     555 -0.44444444 -0.22222222 -0.33333333      55  0.44444444  0.33333333  0.22222222
     556 -0.33333333 -0.22222222 -0.33333333      54  0.33333333  0.33333333  0.22222222
     557 -0.22222222 -0.22222222 -0.33333333      53  0.22222222  0.22222222  0.33333333
     558 -0.11111111 -0.22222222 -0.33333333      52  0.11111111  0.33333333  0.22222222
     559  0.00000000 -0.11111111 -0.33333333      36  0.00000000  0.33333333  0.11111111
     560  0.11111111 -0.11111111 -0.33333333      37  0.11111111  0.33333333  0.11111111
     561  0.22222222 -0.11111111 -0.33333333      38  0.22222222  0.11111111  0.33333333
     562  0.33333333 -0.11111111 -0.33333333      39  0.33333333  0.11111111  0.33333333
     563  0.44444444 -0.11111111 -0.33333333      40  0.44444444  0.33333333  0.11111111
     564 -0.44444444 -0.11111111 -0.33333333      40  0.44444444  0.33333333  0.11111111
     565 -0.33333333 -0.11111111 -0.33333333      39  0.33333333  0.11111111  0.33333333
     566 -0.22222222 -0.11111111 -0.33333333      38  0.22222222  0.11111111  0.33333333
     567 -0.11111111 -0.11111111 -0.33333333      37  0.11111111  0.33333333  0.11111111
     568  0.00000000  0.00000000 -0.22222222      11  0.00000000  0.22222222  0.00000000
     569  0.11111111  0.00000000 -0.22222222      12  0.11111111  0.22222222  0.00000000
     570  0.22222222  0.00000000 -0.22222222      13  0.22222222  0.22222222  0.00000000
     571  0.33333333  0.00000000 -0.22222222      14  0.33333333  0.22222222  0.00000000
     572  0.44444444  0.00000000 -0.22222222      15  0.44444444  0.22222222  0.00000000
     573 -0.44444444  0.00000000 -0.22222222      15  0.44444444  0.22222222  0.00000000
     574 -0.33333333  0.00000000 -0.22222222      14  0.33333333  0.22222222  0.00000000
     575 -0.22222222  0.00000000 -0.22222222      13  0.22222222  0.22222222  0.00000000
     576 -0.11111111  0.00000000 -0.22222222      12  0.11111111  0.22222222  0.00000000
     577  0.00000000  0.11111111 -0.22222222      31  0.00000000  0.22222222  0.11111111
     578  0.11111111  0.11111111 -0.22222222      32  0.11111111  0.22222222  0.11111111
     579  0.22222222  0.11111111 -0.22222222      33  0.22222222  0.22222222  0.11111111
     580  0.33333333  0.11111111 -0.22222222      34  0.33333333  0.11111111  0.22222222
     581  0.44444444  0.11111111 -0.22222222      35  0.44444444  0.22222222  0.11111111
     582 -0.44444444  0.11111111 -0.22222222      35  0.44444444  0.22222222  0.11111111
     583 -0.33333333  0.11111111 -0.22222222      34  0.33333333  0.11111111  0.22222222
     584 -0.22222222  0.11111111 -0.22222222      33  0.22222222  0.22222222  0.11111111
     585 -0.11111111  0.11111111 -0.22222222      32  0.11111111  0.22222222  0.11111111
     586  0.00000000  0.22222222 -0.22222222      46  0.00000000  0.22222222  0.22222222
     587  0.11111111  0.22222222 -0.22222222      47  0.11111111  0.22222222  0.22222222
     588  0.22222222  0.22222222 -0.22222222      48  0.22222222  0.22222222  0.22222222
     589  0.33333333  0.22222222 -0.22222222      49  0.33333333  0.22222222  0.22222222
     590  0.44444444  0.22222222 -0.22222222      50  0.44444444  0.22222222  0.22222222
     591 -0.44444444  0.22222222 -0.22222222      50  0.44444444  0.22222222  0.22222222
     592 -0.33333333  0.22222222 -0.22222222      49  0.33333333  0.22222222  0.22222222
     593 -0.22222222  0.22222222 -0.22222222      48  0.22222222  0.22222222  0.22222222
     594 -0.11111111  0.22222222 -0.22222222      47  0.11111111  0.22222222  0.22222222
     595  0.00000000  0.33333333 -0.22222222      51  0.00000000  0.33333333  0.22222222
     596  0.11111111  0.33333333 -0.22222222      52  0.11111111  0.33333333  0.22222222
     597  0.22222222  0.33333333 -0.22222222      53  0.22222222  0.22222222  0.33333333
     598  0.33333333  0.33333333 -0.22222222      54  0.33333333  0.33333333  0.22222222
     599  0.44444444  0.33333333 -0.22222222      55  0.44444444  0.33333333  0.22222222
     600 -0.44444444  0.33333333 -0.22222222      55  0.44444444  0.33333333  0.22222222
     601 -0.33333333  0.33333333 -0.22222222      54  0.33333333  0.33333333  0.22222222
     602 -0.22222222  0.33333333 -0.22222222      53  0.22222222  0.22222222  0.33333333
     603 -0.11111111  0.33333333 -0.22222222      52  0.11111111  0.33333333  0.22222222
     604  0.00000000  0.44444444 -0.22222222      56  0.00000000  0.44444444  0.22222222
     605  0.11111111  0.44444444 -0.22222222      57  0.11111111  0.44444444  0.22222222
     606  0.22222222  0.44444444 -0.22222222      58  0.22222222  0.44444444  0.22222222
     607  0.33333333  0.44444444 -0.22222222      59  0.33333333  0.44444444  0.22222222
     608  0.44444444  0.44444444 -0.22222222      60  0.44444444  0.44444444  0.22222222
     609 -0.44444444  0.44444444 -0.22222222      60  0.44444444  0.44444444  0.22222222
     610 -0.33333333  0.44444444 -0.22222222      59  0.33333333  0.44444444  0.22222222
     611 -0.22222222  0.44444444 -0.22222222      58  0.22222222  0.44444444  0.22222222
     612 -0.11111111  0.44444444 -0.22222222      57  0.11111111  0.44444444  0.22222222
     613  0.00000000 -0.44444444 -0.22222222      56  0.00000000  0.44444444  0.22222222
     614  0.11111111 -0.44444444 -0.22222222      57  0.11111111  0.44444444  0.22222222
     615  0.22222222 -0.44444444 -0.22222222      58  0.22222222  0.44444444  0.22222222
     616  0.33333333 -0.44444444 -0.22222222      59  0.33333333  0.44444444  0.22222222
     617  0.44444444 -0.44444444 -0.22222222      60  0.44444444  0.44444444  0.22222222
     618 -0.44444444 -0.44444444 -0.22222222      60  0.44444444  0.44444444  0.22222222
     619 -0.33333333 -0.44444444 -0.22222222      59  0.33333333  0.44444444  0.22222222
     620 -0.22222222 -0.44444444 -0.22222222      58  0.22222222  0.44444444  0.22222222
     621 -0.11111111 -0.44444444 -0.22222222      57  0.11111111  0.44444444  0.22222222
     622  0.00000000 -0.33333333 -0.22222222      51  0.00000000  0.33333333  0.22222222
     623  0.11111111 -0.33333333 -0.22222222      52  0.11111111  0.33333333  0.22222222
     624  0.22222222 -0.33333333 -0.22222222      53  0.22222222  0.22222222  0.33333333
     625  0.33333333 -0.33333333 -0.22222222      54  0.33333333  0.33333333  0.22222222
     626  0.44444444 -0.33333333 -0.22222222      55  0.44444444  0.33333333  0.22222222
     627 -0.44444444 -0.33333333 -0.22222222      55  0.44444444  0.33333333  0.22222222
     628 -0.33333333 -0.33333333 -0.22222222      54  0.33333333  0.33333333  0.22222222
     629 -0.22222222 -0.33333333 -0.22222222      53  0.22222222  0.22222222  0.33333333
     630 -0.11111111 -0.33333333 -0.22222222      52  0.11111111  0.33333333  0.22222222
     631  0.00000000 -0.22222222 -0.22222222      46  0.00000000  0.22222222  0.22222222
     632  0.11111111 -0.22222222 -0.22222222      47  0.11111111  0.22222222  0.22222222
     633  0.22222222 -0.22222222 -0.22222222      48  0.22222222  0.22222222  0.22222222
     634  0.33333333 -0.22222222 -0.22222222      49  0.33333333  0.22222222  0.22222222
     635  0.44444444 -0.22222222 -0.22222222      50  0.44444444  0.22222222  0.22222222
     636 -0.44444444 -0.22222222 -0.22222222      50  0.44444444  0.22222222  0.22222222
     637 -0.33333333 -0.22222222 -0.22222222      49  0.33333333  0.22222222  0.22222222
     638 -0.22222222 -0.22222222 -0.22222222      48  0.22222222  0.22222222  0.22222222
     639 -0.11111111 -0.22222222 -0.22222222      47  0.11111111  0.22222222  0.22222222
     640  0.00000000 -0.11111111 -0.22222222      31  0.00000000  0.22222222  0.11111111
     641  0.11111111 -0.11111111 -0.22222222      32  0.11111111  0.22222222  0.11111111
     642  0.22222222 -0.11111111 -0.22222222      33  0.22222222  0.22222222  0.11111111
     643  0.33333333 -0.11111111 -0.22222222      34  0.33333333  0.11111111  0.22222222
     644  0.44444444 -0.11111111 -0.22222222      35  0.44444444  0.22222222  0.11111111
     645 -0.44444444 -0.11111111 -0.22222222      35  0.44444444  0.22222222  0.11111111
     646 -0.33333333 -0.11111111 -0.22222222      34  0.33333333  0.11111111  0.22222222
     647 -0.22222222 -0.11111111 -0.22222222      33  0.22222222  0.22222222  0.11111111
     648 -0.11111111 -0.11111111 -0.22222222      32  0.11111111  0.22222222  0.11111111
     649  0.00000000  0.00000000 -0.11111111       6  0.00000000  0.11111111  0.00000000
     650  0.11111111  0.00000000 -0.11111111       7  0.11111111  0.11111111  0.00000000
     651  0.22222222  0.00000000 -0.11111111       8  0.22222222  0.11111111  0.00000000
     652  0.33333333  0.00000000 -0.11111111       9  0.33333333  0.11111111  0.00000000
     653  0.44444444  0.00000000 -0.11111111      10  0.44444444  0.11111111  0.00000000
     654 -0.44444444  0.00000000 -0.11111111      10  0.44444444  0.11111111  0.00000000
     655 -0.33333333  0.00000000 -0.11111111       9  0.33333333  0.11111111  0.00000000
     656 -0.22222222  0.00000000 -0.11111111       8  0.22222222  0.11111111  0.00000000
     657 -0.11111111  0.00000000 -0.11111111       7  0.11111111  0.11111111  0.00000000
     658  0.00000000  0.11111111 -0.11111111      26  0.00000000  0.11111111  0.11111111
     659  0.11111111  0.11111111 -0.11111111      27  0.11111111  0.11111111  0.11111111
     660  0.22222222  0.11111111 -0.11111111      28  0.22222222  0.11111111  0.11111111
     661  0.33333333  0.11111111 -0.11111111      29  0.33333333  0.11111111  0.11111111
     662  0.44444444  0.11111111 -0.11111111      30  0.44444444  0.11111111  0.11111111
     663 -0.44444444  0.11111111 -0.11111111      30  0.44444444  0.11111111  0.11111111
     664 -0.33333333  0.11111111 -0.11111111      29  0.33333333  0.11111111  0.11111111
     665 -0.22222222  0.11111111 -0.11111111      28  0.22222222  0.11111111  0.11111111
     666 -0.11111111  0.11111111 -0.11111111      27  0.11111111  0.11111111  0.11111111
     667  0.00000000  0.22222222 -0.11111111      31  0.00000000  0.22222222  0.11111111
     668  0.11111111  0.22222222 -0.11111111      32  0.11111111  0.22222222  0.11111111
     669  0.22222222  0.22222222 -0.11111111      33  0.22222222  0.22222222  0.11111111
     670  0.33333333  0.22222222 -0.11111111      34  0.33333333  0.11111111  0.22222222
     671  0.44444444  0.22222222 -0.11111111      35  0.44444444  0.22222222  0.11111111
     672 -0.44444444  0.22222222 -0.11111111      35  0.44444444  0.22222222  0.11111111
     673 -0.33333333  0.22222222 -0.11111111      34  0.33333333  0.11111111  0.22222222
     674 -0.22222222  0.22222222 -0.11111111      33  0.22222222  0.22222222  0.11111111
     675 -0.11111111  0.22222222 -0.11111111      32  0.11111111  0.22222222  0.11111111
     676  0.00000000  0.33333333 -0.11111111      36  0.00000000  0.33333333  0.11111111
     677  0.11111111  0.33333333 -0.11111111      37  0.11111111  0.33333333  0.11111111
     678  0.22222222  0.33333333 -0.11111111      38  0.22222222  0.11111111  0.33333333
     679  0.33333333  0.33333333 -0.11111111      39  0.33333333  0.11111111  0.33333333
     680  0.44444444  0.33333333 -0.11111111      40  0.44444444  0.33333333  0.11111111
     681 -0.44444444  0.33333333 -0.11111111      40  0.44444444  0.33333333  0.11111111
     682 -0.33333333  0.33333333 -0.11111111      39  0.33333333  0.11111111  0.33333333
     683 -0.22222222  0.33333333 -0.11111111      38  0.22222222  0.11111111  0.33333333
     684 -0.11111111  0.33333333 -0.11111111      37  0.11111111  0.33333333  0.11111111
     685  0.00000000  0.44444444 -0.11111111      41  0.00000000  0.44444444  0.11111111
     686  0.11111111  0.44444444 -0.11111111      42  0.11111111  0.11111111  0.44444444
     687  0.22222222  0.44444444 -0.11111111      43  0.22222222  0.44444444  0.11111111
     688  0.33333333  0.44444444 -0.11111111      44  0.33333333  0.44444444  0.11111111
     689  0.44444444  0.44444444 -0.11111111      45  0.44444444  0.44444444  0.11111111
     690 -0.44444444  0.44444444 -0.11111111      45  0.44444444  0.44444444  0.11111111
     691 -0.33333333  0.44444444 -0.11111111      44  0.33333333  0.44444444  0.11111111
     692 -0.22222222  0.44444444 -0.11111111      43  0.22222222  0.44444444  0.11111111
     693 -0.11111111  0.44444444 -0.11111111      42  0.11111111  0.11111111  0.44444444
     694  0.00000000 -0.44444444 -0.11111111      41  0.00000000  0.44444444  0.11111111
     695  0.11111111 -0.44444444 -0.11111111      42  0.11111111  0.11111111  0.44444444
     696  0.22222222 -0.44444444 -0.11111111      43  0.22222222  0.44444444  0.11111111
     697  0.33333333 -0.44444444 -0.11111111      44  0.33333333  0.44444444  0.11111111
     698  0.44444444 -0.44444444 -0.11111111      45  0.44444444  0.44444444  0.11111111
     699 -0.44444444 -0.44444444 -0.11111111      45  0.44444444  0.44444444  0.11111111
     700 -0.33333333 -0.44444444 -0.11111111      44  0.33333333  0.44444444  0.11111111
     701 -0.22222222 -0.44444444 -0.11111111      43  0.22222222  0.44444444  0.11111111
     702 -0.11111111 -0.44444444 -0.11111111      42  0.11111111  0.11111111  0.44444444
     703  0.00000000 -0.33333333 -0.11111111      36  0.00000000  0.33333333  0.11111111
     704  0.11111111 -0.33333333 -0.11111111      37  0.11111111  0.33333333  0.11111111
     705  0.22222222 -0.33333333 -0.11111111      38  0.22222222  0.11111111  0.33333333
     706  0.33333333 -0.33333333 -0.11111111      39  0.33333333  0.11111111  0.33333333
     707  0.44444444 -0.33333333 -0.11111111      40  0.44444444  0.33333333  0.11111111
     708 -0.44444444 -0.33333333 -0.11111111      40  0.44444444  0.33333333  0.11111111
     709 -0.33333333 -0.33333333 -0.11111111      39  0.33333333  0.11111111  0.33333333
     710 -0.22222222 -0.33333333 -0.11111111      38  0.22222222  0.11111111  0.33333333
     711 -0.11111111 -0.33333333 -0.11111111      37  0.11111111  0.33333333  0.11111111
     712  0.00000000 -0.22222222 -0.11111111      31  0.00000000  0.22222222  0.11111111
     713  0.11111111 -0.22222222 -0.11111111      32  0.11111111  0.22222222  0.11111111
     714  0.22222222 -0.22222222 -0.11111111      33  0.22222222  0.22222222  0.11111111
     715  0.33333333 -0.22222222 -0.11111111      34  0.33333333  0.11111111  0.22222222
     716  0.44444444 -0.22222222 -0.11111111      35  0.44444444  0.22222222  0.11111111
     717 -0.44444444 -0.22222222 -0.11111111      35  0.44444444  0.22222222  0.11111111
     718 -0.33333333 -0.22222222 -0.11111111      34  0.33333333  0.11111111  0.22222222
     719 -0.22222222 -0.22222222 -0.11111111      33  0.22222222  0.22222222  0.11111111
     720 -0.11111111 -0.22222222 -0.11111111      32  0.11111111  0.22222222  0.11111111
     721  0.00000000 -0.11111111 -0.11111111      26  0.00000000  0.11111111  0.11111111
     722  0.11111111 -0.11111111 -0.11111111      27  0.11111111  0.11111111  0.11111111
     723  0.22222222 -0.11111111 -0.11111111      28  0.22222222  0.11111111  0.11111111
     724  0.33333333 -0.11111111 -0.11111111      29  0.33333333  0.11111111  0.11111111
     725  0.44444444 -0.11111111 -0.11111111      30  0.44444444  0.11111111  0.11111111
     726 -0.44444444 -0.11111111 -0.11111111      30  0.44444444  0.11111111  0.11111111
     727 -0.33333333 -0.11111111 -0.11111111      29  0.33333333  0.11111111  0.11111111
     728 -0.22222222 -0.11111111 -0.11111111      28  0.22222222  0.11111111  0.11111111
     729 -0.11111111 -0.11111111 -0.11111111      27  0.11111111  0.11111111  0.11111111

