S  Sb
 1.0000000000000000
    30.4601970004299965    0.0000000000000000    0.0000000000000000
     0.0000000000000000   24.7598467666739950    0.0000000000000000
     0.0000000000000000    0.0000000000000000    3.8262337005699996
 S   Sb 
   6   4
Direct
  0.6717027142057278  0.5564621794009912  0.2500000000006534
  0.5728149826450792  0.5961202791666831  0.7500000000006536
  0.5453173615497470  0.4749870932744795  0.2500000000006534
  0.4546826384502530  0.5250129067255206  0.7500000000019602
  0.4271850173549210  0.4038797208333170  0.2500000000019602
  0.3282972857942723  0.4435378205990089  0.7500000000019602
  0.6274531788218963  0.5185574588482287  0.7500000000006536
  0.5155924142842968  0.5673471951294712  0.2500000000006534
  0.4844075857157032  0.4326528048705288  0.7500000000019602
  0.3725468211781034  0.4814425411517714  0.2500000000019602
