                               nkstot now = 75
K-POINTS DIRECT COORDINATES
 KPOINTS    DIRECT_X    DIRECT_Y    DIRECT_Z  WEIGHT
       1  0.00000000  0.00000000  0.00000000  0.0014
       2  0.11111111  0.00000000  0.00000000  0.0055
       3  0.22222222  0.00000000  0.00000000  0.0055
       4  0.33333333  0.00000000  0.00000000  0.0055
       5  0.44444444  0.00000000  0.00000000  0.0055
       6  0.00000000  0.11111111  0.00000000  0.0027
       7  0.11111111  0.11111111  0.00000000  0.0110
       8  0.22222222  0.11111111  0.00000000  0.0110
       9  0.33333333  0.11111111  0.00000000  0.0110
      10  0.44444444  0.11111111  0.00000000  0.0110
      11  0.00000000  0.22222222  0.00000000  0.0027
      12  0.11111111  0.22222222  0.00000000  0.0110
      13  0.22222222  0.22222222  0.00000000  0.0110
      14  0.33333333  0.22222222  0.00000000  0.0110
      15  0.44444444  0.22222222  0.00000000  0.0110
      16  0.00000000  0.33333333  0.00000000  0.0027
      17  0.11111111  0.33333333  0.00000000  0.0110
      18  0.22222222  0.33333333  0.00000000  0.0110
      19  0.33333333  0.33333333  0.00000000  0.0110
      20  0.44444444  0.33333333  0.00000000  0.0110
      21  0.00000000  0.44444444  0.00000000  0.0027
      22  0.11111111  0.44444444  0.00000000  0.0110
      23  0.22222222  0.44444444  0.00000000  0.0110
      24  0.33333333  0.44444444  0.00000000  0.0110
      25  0.44444444  0.44444444  0.00000000  0.0110
      26  0.11111111  0.00000000  0.11111111  0.0055
      27  0.22222222  0.00000000  0.11111111  0.0110
      28  0.33333333  0.00000000  0.11111111  0.0110
      29  0.44444444  0.00000000  0.11111111  0.0110
      30  0.11111111  0.11111111  0.11111111  0.0110
      31  0.22222222  0.11111111  0.11111111  0.0219
      32  0.33333333  0.11111111  0.11111111  0.0219
      33  0.11111111  0.11111111  0.44444444  0.0219
      34  0.11111111  0.22222222  0.11111111  0.0110
      35  0.22222222  0.22222222  0.11111111  0.0219
      36  0.11111111  0.22222222  0.33333333  0.0219
      37  0.44444444  0.22222222  0.11111111  0.0219
      38  0.11111111  0.33333333  0.11111111  0.0110
      39  0.11111111  0.33333333  0.22222222  0.0219
      40  0.11111111  0.33333333  0.33333333  0.0219
      41  0.44444444  0.33333333  0.11111111  0.0219
      42  0.11111111  0.44444444  0.11111111  0.0110
      43  0.22222222  0.44444444  0.11111111  0.0219
      44  0.33333333  0.44444444  0.11111111  0.0219
      45  0.44444444  0.44444444  0.11111111  0.0219
      46  0.22222222  0.00000000  0.22222222  0.0055
      47  0.33333333  0.00000000  0.22222222  0.0110
      48  0.44444444  0.00000000  0.22222222  0.0110
      49  0.22222222  0.11111111  0.22222222  0.0110
      50  0.33333333  0.11111111  0.22222222  0.0219
      51  0.44444444  0.11111111  0.22222222  0.0219
      52  0.22222222  0.22222222  0.22222222  0.0110
      53  0.22222222  0.22222222  0.33333333  0.0219
      54  0.44444444  0.22222222  0.22222222  0.0219
      55  0.22222222  0.33333333  0.22222222  0.0110
      56  0.33333333  0.33333333  0.22222222  0.0219
      57  0.44444444  0.33333333  0.22222222  0.0219
      58  0.22222222  0.44444444  0.22222222  0.0110
      59  0.33333333  0.44444444  0.22222222  0.0219
      60  0.44444444  0.44444444  0.22222222  0.0219
      61  0.33333333  0.00000000  0.33333333  0.0055
      62  0.44444444  0.00000000  0.33333333  0.0110
      63  0.33333333  0.11111111  0.33333333  0.0110
      64  0.44444444  0.11111111  0.33333333  0.0219
      65  0.33333333  0.22222222  0.33333333  0.0110
      66  0.44444444  0.22222222  0.33333333  0.0219
      67  0.33333333  0.33333333  0.33333333  0.0110
      68  0.44444444  0.33333333  0.33333333  0.0219
      69  0.33333333  0.44444444  0.33333333  0.0110
      70  0.44444444  0.44444444  0.33333333  0.0219
      71  0.44444444  0.00000000  0.44444444  0.0055
      72  0.44444444  0.11111111  0.44444444  0.0110
      73  0.44444444  0.22222222  0.44444444  0.0110
      74  0.44444444  0.33333333  0.44444444  0.0110
      75  0.44444444  0.44444444  0.44444444  0.0110

                                   nkstot = 729                                                            ibzkpt
K-POINTS REDUCTION ACCORDING TO SYMMETRY
     KPT    DIRECT_X    DIRECT_Y    DIRECT_Z     IBZ    DIRECT_X    DIRECT_Y    DIRECT_Z
       1  0.00000000  0.00000000  0.00000000       1  0.00000000  0.00000000  0.00000000
       2  0.11111111  0.00000000  0.00000000       2  0.11111111  0.00000000  0.00000000
       3  0.22222222  0.00000000  0.00000000       3  0.22222222  0.00000000  0.00000000
       4  0.33333333  0.00000000  0.00000000       4  0.33333333  0.00000000  0.00000000
       5  0.44444444  0.00000000  0.00000000       5  0.44444444  0.00000000  0.00000000
       6 -0.44444444  0.00000000  0.00000000       5  0.44444444  0.00000000  0.00000000
       7 -0.33333333  0.00000000  0.00000000       4  0.33333333  0.00000000  0.00000000
       8 -0.22222222  0.00000000  0.00000000       3  0.22222222  0.00000000  0.00000000
       9 -0.11111111  0.00000000  0.00000000       2  0.11111111  0.00000000  0.00000000
      10  0.00000000  0.11111111  0.00000000       6  0.00000000  0.11111111  0.00000000
      11  0.11111111  0.11111111  0.00000000       7  0.11111111  0.11111111  0.00000000
      12  0.22222222  0.11111111  0.00000000       8  0.22222222  0.11111111  0.00000000
      13  0.33333333  0.11111111  0.00000000       9  0.33333333  0.11111111  0.00000000
      14  0.44444444  0.11111111  0.00000000      10  0.44444444  0.11111111  0.00000000
      15 -0.44444444  0.11111111  0.00000000      10  0.44444444  0.11111111  0.00000000
      16 -0.33333333  0.11111111  0.00000000       9  0.33333333  0.11111111  0.00000000
      17 -0.22222222  0.11111111  0.00000000       8  0.22222222  0.11111111  0.00000000
      18 -0.11111111  0.11111111  0.00000000       7  0.11111111  0.11111111  0.00000000
      19  0.00000000  0.22222222  0.00000000      11  0.00000000  0.22222222  0.00000000
      20  0.11111111  0.22222222  0.00000000      12  0.11111111  0.22222222  0.00000000
      21  0.22222222  0.22222222  0.00000000      13  0.22222222  0.22222222  0.00000000
      22  0.33333333  0.22222222  0.00000000      14  0.33333333  0.22222222  0.00000000
      23  0.44444444  0.22222222  0.00000000      15  0.44444444  0.22222222  0.00000000
      24 -0.44444444  0.22222222  0.00000000      15  0.44444444  0.22222222  0.00000000
      25 -0.33333333  0.22222222  0.00000000      14  0.33333333  0.22222222  0.00000000
      26 -0.22222222  0.22222222  0.00000000      13  0.22222222  0.22222222  0.00000000
      27 -0.11111111  0.22222222  0.00000000      12  0.11111111  0.22222222  0.00000000
      28  0.00000000  0.33333333  0.00000000      16  0.00000000  0.33333333  0.00000000
      29  0.11111111  0.33333333  0.00000000      17  0.11111111  0.33333333  0.00000000
      30  0.22222222  0.33333333  0.00000000      18  0.22222222  0.33333333  0.00000000
      31  0.33333333  0.33333333  0.00000000      19  0.33333333  0.33333333  0.00000000
      32  0.44444444  0.33333333  0.00000000      20  0.44444444  0.33333333  0.00000000
      33 -0.44444444  0.33333333  0.00000000      20  0.44444444  0.33333333  0.00000000
      34 -0.33333333  0.33333333  0.00000000      19  0.33333333  0.33333333  0.00000000
      35 -0.22222222  0.33333333  0.00000000      18  0.22222222  0.33333333  0.00000000
      36 -0.11111111  0.33333333  0.00000000      17  0.11111111  0.33333333  0.00000000
      37  0.00000000  0.44444444  0.00000000      21  0.00000000  0.44444444  0.00000000
      38  0.11111111  0.44444444  0.00000000      22  0.11111111  0.44444444  0.00000000
      39  0.22222222  0.44444444  0.00000000      23  0.22222222  0.44444444  0.00000000
      40  0.33333333  0.44444444  0.00000000      24  0.33333333  0.44444444  0.00000000
      41  0.44444444  0.44444444  0.00000000      25  0.44444444  0.44444444  0.00000000
      42 -0.44444444  0.44444444  0.00000000      25  0.44444444  0.44444444  0.00000000
      43 -0.33333333  0.44444444  0.00000000      24  0.33333333  0.44444444  0.00000000
      44 -0.22222222  0.44444444  0.00000000      23  0.22222222  0.44444444  0.00000000
      45 -0.11111111  0.44444444  0.00000000      22  0.11111111  0.44444444  0.00000000
      46  0.00000000 -0.44444444  0.00000000      21  0.00000000  0.44444444  0.00000000
      47  0.11111111 -0.44444444  0.00000000      22  0.11111111  0.44444444  0.00000000
      48  0.22222222 -0.44444444  0.00000000      23  0.22222222  0.44444444  0.00000000
      49  0.33333333 -0.44444444  0.00000000      24  0.33333333  0.44444444  0.00000000
      50  0.44444444 -0.44444444  0.00000000      25  0.44444444  0.44444444  0.00000000
      51 -0.44444444 -0.44444444  0.00000000      25  0.44444444  0.44444444  0.00000000
      52 -0.33333333 -0.44444444  0.00000000      24  0.33333333  0.44444444  0.00000000
      53 -0.22222222 -0.44444444  0.00000000      23  0.22222222  0.44444444  0.00000000
      54 -0.11111111 -0.44444444  0.00000000      22  0.11111111  0.44444444  0.00000000
      55  0.00000000 -0.33333333  0.00000000      16  0.00000000  0.33333333  0.00000000
      56  0.11111111 -0.33333333  0.00000000      17  0.11111111  0.33333333  0.00000000
      57  0.22222222 -0.33333333  0.00000000      18  0.22222222  0.33333333  0.00000000
      58  0.33333333 -0.33333333  0.00000000      19  0.33333333  0.33333333  0.00000000
      59  0.44444444 -0.33333333  0.00000000      20  0.44444444  0.33333333  0.00000000
      60 -0.44444444 -0.33333333  0.00000000      20  0.44444444  0.33333333  0.00000000
      61 -0.33333333 -0.33333333  0.00000000      19  0.33333333  0.33333333  0.00000000
      62 -0.22222222 -0.33333333  0.00000000      18  0.22222222  0.33333333  0.00000000
      63 -0.11111111 -0.33333333  0.00000000      17  0.11111111  0.33333333  0.00000000
      64  0.00000000 -0.22222222  0.00000000      11  0.00000000  0.22222222  0.00000000
      65  0.11111111 -0.22222222  0.00000000      12  0.11111111  0.22222222  0.00000000
      66  0.22222222 -0.22222222  0.00000000      13  0.22222222  0.22222222  0.00000000
      67  0.33333333 -0.22222222  0.00000000      14  0.33333333  0.22222222  0.00000000
      68  0.44444444 -0.22222222  0.00000000      15  0.44444444  0.22222222  0.00000000
      69 -0.44444444 -0.22222222  0.00000000      15  0.44444444  0.22222222  0.00000000
      70 -0.33333333 -0.22222222  0.00000000      14  0.33333333  0.22222222  0.00000000
      71 -0.22222222 -0.22222222  0.00000000      13  0.22222222  0.22222222  0.00000000
      72 -0.11111111 -0.22222222  0.00000000      12  0.11111111  0.22222222  0.00000000
      73  0.00000000 -0.11111111  0.00000000       6  0.00000000  0.11111111  0.00000000
      74  0.11111111 -0.11111111  0.00000000       7  0.11111111  0.11111111  0.00000000
      75  0.22222222 -0.11111111  0.00000000       8  0.22222222  0.11111111  0.00000000
      76  0.33333333 -0.11111111  0.00000000       9  0.33333333  0.11111111  0.00000000
      77  0.44444444 -0.11111111  0.00000000      10  0.44444444  0.11111111  0.00000000
      78 -0.44444444 -0.11111111  0.00000000      10  0.44444444  0.11111111  0.00000000
      79 -0.33333333 -0.11111111  0.00000000       9  0.33333333  0.11111111  0.00000000
      80 -0.22222222 -0.11111111  0.00000000       8  0.22222222  0.11111111  0.00000000
      81 -0.11111111 -0.11111111  0.00000000       7  0.11111111  0.11111111  0.00000000
      82  0.00000000  0.00000000  0.11111111       2  0.11111111  0.00000000  0.00000000
      83  0.11111111  0.00000000  0.11111111      26  0.11111111  0.00000000  0.11111111
      84  0.22222222  0.00000000  0.11111111      27  0.22222222  0.00000000  0.11111111
      85  0.33333333  0.00000000  0.11111111      28  0.33333333  0.00000000  0.11111111
      86  0.44444444  0.00000000  0.11111111      29  0.44444444  0.00000000  0.11111111
      87 -0.44444444  0.00000000  0.11111111      29  0.44444444  0.00000000  0.11111111
      88 -0.33333333  0.00000000  0.11111111      28  0.33333333  0.00000000  0.11111111
      89 -0.22222222  0.00000000  0.11111111      27  0.22222222  0.00000000  0.11111111
      90 -0.11111111  0.00000000  0.11111111      26  0.11111111  0.00000000  0.11111111
      91  0.00000000  0.11111111  0.11111111       7  0.11111111  0.11111111  0.00000000
      92  0.11111111  0.11111111  0.11111111      30  0.11111111  0.11111111  0.11111111
      93  0.22222222  0.11111111  0.11111111      31  0.22222222  0.11111111  0.11111111
      94  0.33333333  0.11111111  0.11111111      32  0.33333333  0.11111111  0.11111111
      95  0.44444444  0.11111111  0.11111111      33  0.11111111  0.11111111  0.44444444
      96 -0.44444444  0.11111111  0.11111111      33  0.11111111  0.11111111  0.44444444
      97 -0.33333333  0.11111111  0.11111111      32  0.33333333  0.11111111  0.11111111
      98 -0.22222222  0.11111111  0.11111111      31  0.22222222  0.11111111  0.11111111
      99 -0.11111111  0.11111111  0.11111111      30  0.11111111  0.11111111  0.11111111
     100  0.00000000  0.22222222  0.11111111      12  0.11111111  0.22222222  0.00000000
     101  0.11111111  0.22222222  0.11111111      34  0.11111111  0.22222222  0.11111111
     102  0.22222222  0.22222222  0.11111111      35  0.22222222  0.22222222  0.11111111
     103  0.33333333  0.22222222  0.11111111      36  0.11111111  0.22222222  0.33333333
     104  0.44444444  0.22222222  0.11111111      37  0.44444444  0.22222222  0.11111111
     105 -0.44444444  0.22222222  0.11111111      37  0.44444444  0.22222222  0.11111111
     106 -0.33333333  0.22222222  0.11111111      36  0.11111111  0.22222222  0.33333333
     107 -0.22222222  0.22222222  0.11111111      35  0.22222222  0.22222222  0.11111111
     108 -0.11111111  0.22222222  0.11111111      34  0.11111111  0.22222222  0.11111111
     109  0.00000000  0.33333333  0.11111111      17  0.11111111  0.33333333  0.00000000
     110  0.11111111  0.33333333  0.11111111      38  0.11111111  0.33333333  0.11111111
     111  0.22222222  0.33333333  0.11111111      39  0.11111111  0.33333333  0.22222222
     112  0.33333333  0.33333333  0.11111111      40  0.11111111  0.33333333  0.33333333
     113  0.44444444  0.33333333  0.11111111      41  0.44444444  0.33333333  0.11111111
     114 -0.44444444  0.33333333  0.11111111      41  0.44444444  0.33333333  0.11111111
     115 -0.33333333  0.33333333  0.11111111      40  0.11111111  0.33333333  0.33333333
     116 -0.22222222  0.33333333  0.11111111      39  0.11111111  0.33333333  0.22222222
     117 -0.11111111  0.33333333  0.11111111      38  0.11111111  0.33333333  0.11111111
     118  0.00000000  0.44444444  0.11111111      22  0.11111111  0.44444444  0.00000000
     119  0.11111111  0.44444444  0.11111111      42  0.11111111  0.44444444  0.11111111
     120  0.22222222  0.44444444  0.11111111      43  0.22222222  0.44444444  0.11111111
     121  0.33333333  0.44444444  0.11111111      44  0.33333333  0.44444444  0.11111111
     122  0.44444444  0.44444444  0.11111111      45  0.44444444  0.44444444  0.11111111
     123 -0.44444444  0.44444444  0.11111111      45  0.44444444  0.44444444  0.11111111
     124 -0.33333333  0.44444444  0.11111111      44  0.33333333  0.44444444  0.11111111
     125 -0.22222222  0.44444444  0.11111111      43  0.22222222  0.44444444  0.11111111
     126 -0.11111111  0.44444444  0.11111111      42  0.11111111  0.44444444  0.11111111
     127  0.00000000 -0.44444444  0.11111111      22  0.11111111  0.44444444  0.00000000
     128  0.11111111 -0.44444444  0.11111111      42  0.11111111  0.44444444  0.11111111
     129  0.22222222 -0.44444444  0.11111111      43  0.22222222  0.44444444  0.11111111
     130  0.33333333 -0.44444444  0.11111111      44  0.33333333  0.44444444  0.11111111
     131  0.44444444 -0.44444444  0.11111111      45  0.44444444  0.44444444  0.11111111
     132 -0.44444444 -0.44444444  0.11111111      45  0.44444444  0.44444444  0.11111111
     133 -0.33333333 -0.44444444  0.11111111      44  0.33333333  0.44444444  0.11111111
     134 -0.22222222 -0.44444444  0.11111111      43  0.22222222  0.44444444  0.11111111
     135 -0.11111111 -0.44444444  0.11111111      42  0.11111111  0.44444444  0.11111111
     136  0.00000000 -0.33333333  0.11111111      17  0.11111111  0.33333333  0.00000000
     137  0.11111111 -0.33333333  0.11111111      38  0.11111111  0.33333333  0.11111111
     138  0.22222222 -0.33333333  0.11111111      39  0.11111111  0.33333333  0.22222222
     139  0.33333333 -0.33333333  0.11111111      40  0.11111111  0.33333333  0.33333333
     140  0.44444444 -0.33333333  0.11111111      41  0.44444444  0.33333333  0.11111111
     141 -0.44444444 -0.33333333  0.11111111      41  0.44444444  0.33333333  0.11111111
     142 -0.33333333 -0.33333333  0.11111111      40  0.11111111  0.33333333  0.33333333
     143 -0.22222222 -0.33333333  0.11111111      39  0.11111111  0.33333333  0.22222222
     144 -0.11111111 -0.33333333  0.11111111      38  0.11111111  0.33333333  0.11111111
     145  0.00000000 -0.22222222  0.11111111      12  0.11111111  0.22222222  0.00000000
     146  0.11111111 -0.22222222  0.11111111      34  0.11111111  0.22222222  0.11111111
     147  0.22222222 -0.22222222  0.11111111      35  0.22222222  0.22222222  0.11111111
     148  0.33333333 -0.22222222  0.11111111      36  0.11111111  0.22222222  0.33333333
     149  0.44444444 -0.22222222  0.11111111      37  0.44444444  0.22222222  0.11111111
     150 -0.44444444 -0.22222222  0.11111111      37  0.44444444  0.22222222  0.11111111
     151 -0.33333333 -0.22222222  0.11111111      36  0.11111111  0.22222222  0.33333333
     152 -0.22222222 -0.22222222  0.11111111      35  0.22222222  0.22222222  0.11111111
     153 -0.11111111 -0.22222222  0.11111111      34  0.11111111  0.22222222  0.11111111
     154  0.00000000 -0.11111111  0.11111111       7  0.11111111  0.11111111  0.00000000
     155  0.11111111 -0.11111111  0.11111111      30  0.11111111  0.11111111  0.11111111
     156  0.22222222 -0.11111111  0.11111111      31  0.22222222  0.11111111  0.11111111
     157  0.33333333 -0.11111111  0.11111111      32  0.33333333  0.11111111  0.11111111
     158  0.44444444 -0.11111111  0.11111111      33  0.11111111  0.11111111  0.44444444
     159 -0.44444444 -0.11111111  0.11111111      33  0.11111111  0.11111111  0.44444444
     160 -0.33333333 -0.11111111  0.11111111      32  0.33333333  0.11111111  0.11111111
     161 -0.22222222 -0.11111111  0.11111111      31  0.22222222  0.11111111  0.11111111
     162 -0.11111111 -0.11111111  0.11111111      30  0.11111111  0.11111111  0.11111111
     163  0.00000000  0.00000000  0.22222222       3  0.22222222  0.00000000  0.00000000
     164  0.11111111  0.00000000  0.22222222      27  0.22222222  0.00000000  0.11111111
     165  0.22222222  0.00000000  0.22222222      46  0.22222222  0.00000000  0.22222222
     166  0.33333333  0.00000000  0.22222222      47  0.33333333  0.00000000  0.22222222
     167  0.44444444  0.00000000  0.22222222      48  0.44444444  0.00000000  0.22222222
     168 -0.44444444  0.00000000  0.22222222      48  0.44444444  0.00000000  0.22222222
     169 -0.33333333  0.00000000  0.22222222      47  0.33333333  0.00000000  0.22222222
     170 -0.22222222  0.00000000  0.22222222      46  0.22222222  0.00000000  0.22222222
     171 -0.11111111  0.00000000  0.22222222      27  0.22222222  0.00000000  0.11111111
     172  0.00000000  0.11111111  0.22222222       8  0.22222222  0.11111111  0.00000000
     173  0.11111111  0.11111111  0.22222222      31  0.22222222  0.11111111  0.11111111
     174  0.22222222  0.11111111  0.22222222      49  0.22222222  0.11111111  0.22222222
     175  0.33333333  0.11111111  0.22222222      50  0.33333333  0.11111111  0.22222222
     176  0.44444444  0.11111111  0.22222222      51  0.44444444  0.11111111  0.22222222
     177 -0.44444444  0.11111111  0.22222222      51  0.44444444  0.11111111  0.22222222
     178 -0.33333333  0.11111111  0.22222222      50  0.33333333  0.11111111  0.22222222
     179 -0.22222222  0.11111111  0.22222222      49  0.22222222  0.11111111  0.22222222
     180 -0.11111111  0.11111111  0.22222222      31  0.22222222  0.11111111  0.11111111
     181  0.00000000  0.22222222  0.22222222      13  0.22222222  0.22222222  0.00000000
     182  0.11111111  0.22222222  0.22222222      35  0.22222222  0.22222222  0.11111111
     183  0.22222222  0.22222222  0.22222222      52  0.22222222  0.22222222  0.22222222
     184  0.33333333  0.22222222  0.22222222      53  0.22222222  0.22222222  0.33333333
     185  0.44444444  0.22222222  0.22222222      54  0.44444444  0.22222222  0.22222222
     186 -0.44444444  0.22222222  0.22222222      54  0.44444444  0.22222222  0.22222222
     187 -0.33333333  0.22222222  0.22222222      53  0.22222222  0.22222222  0.33333333
     188 -0.22222222  0.22222222  0.22222222      52  0.22222222  0.22222222  0.22222222
     189 -0.11111111  0.22222222  0.22222222      35  0.22222222  0.22222222  0.11111111
     190  0.00000000  0.33333333  0.22222222      18  0.22222222  0.33333333  0.00000000
     191  0.11111111  0.33333333  0.22222222      39  0.11111111  0.33333333  0.22222222
     192  0.22222222  0.33333333  0.22222222      55  0.22222222  0.33333333  0.22222222
     193  0.33333333  0.33333333  0.22222222      56  0.33333333  0.33333333  0.22222222
     194  0.44444444  0.33333333  0.22222222      57  0.44444444  0.33333333  0.22222222
     195 -0.44444444  0.33333333  0.22222222      57  0.44444444  0.33333333  0.22222222
     196 -0.33333333  0.33333333  0.22222222      56  0.33333333  0.33333333  0.22222222
     197 -0.22222222  0.33333333  0.22222222      55  0.22222222  0.33333333  0.22222222
     198 -0.11111111  0.33333333  0.22222222      39  0.11111111  0.33333333  0.22222222
     199  0.00000000  0.44444444  0.22222222      23  0.22222222  0.44444444  0.00000000
     200  0.11111111  0.44444444  0.22222222      43  0.22222222  0.44444444  0.11111111
     201  0.22222222  0.44444444  0.22222222      58  0.22222222  0.44444444  0.22222222
     202  0.33333333  0.44444444  0.22222222      59  0.33333333  0.44444444  0.22222222
     203  0.44444444  0.44444444  0.22222222      60  0.44444444  0.44444444  0.22222222
     204 -0.44444444  0.44444444  0.22222222      60  0.44444444  0.44444444  0.22222222
     205 -0.33333333  0.44444444  0.22222222      59  0.33333333  0.44444444  0.22222222
     206 -0.22222222  0.44444444  0.22222222      58  0.22222222  0.44444444  0.22222222
     207 -0.11111111  0.44444444  0.22222222      43  0.22222222  0.44444444  0.11111111
     208  0.00000000 -0.44444444  0.22222222      23  0.22222222  0.44444444  0.00000000
     209  0.11111111 -0.44444444  0.22222222      43  0.22222222  0.44444444  0.11111111
     210  0.22222222 -0.44444444  0.22222222      58  0.22222222  0.44444444  0.22222222
     211  0.33333333 -0.44444444  0.22222222      59  0.33333333  0.44444444  0.22222222
     212  0.44444444 -0.44444444  0.22222222      60  0.44444444  0.44444444  0.22222222
     213 -0.44444444 -0.44444444  0.22222222      60  0.44444444  0.44444444  0.22222222
     214 -0.33333333 -0.44444444  0.22222222      59  0.33333333  0.44444444  0.22222222
     215 -0.22222222 -0.44444444  0.22222222      58  0.22222222  0.44444444  0.22222222
     216 -0.11111111 -0.44444444  0.22222222      43  0.22222222  0.44444444  0.11111111
     217  0.00000000 -0.33333333  0.22222222      18  0.22222222  0.33333333  0.00000000
     218  0.11111111 -0.33333333  0.22222222      39  0.11111111  0.33333333  0.22222222
     219  0.22222222 -0.33333333  0.22222222      55  0.22222222  0.33333333  0.22222222
     220  0.33333333 -0.33333333  0.22222222      56  0.33333333  0.33333333  0.22222222
     221  0.44444444 -0.33333333  0.22222222      57  0.44444444  0.33333333  0.22222222
     222 -0.44444444 -0.33333333  0.22222222      57  0.44444444  0.33333333  0.22222222
     223 -0.33333333 -0.33333333  0.22222222      56  0.33333333  0.33333333  0.22222222
     224 -0.22222222 -0.33333333  0.22222222      55  0.22222222  0.33333333  0.22222222
     225 -0.11111111 -0.33333333  0.22222222      39  0.11111111  0.33333333  0.22222222
     226  0.00000000 -0.22222222  0.22222222      13  0.22222222  0.22222222  0.00000000
     227  0.11111111 -0.22222222  0.22222222      35  0.22222222  0.22222222  0.11111111
     228  0.22222222 -0.22222222  0.22222222      52  0.22222222  0.22222222  0.22222222
     229  0.33333333 -0.22222222  0.22222222      53  0.22222222  0.22222222  0.33333333
     230  0.44444444 -0.22222222  0.22222222      54  0.44444444  0.22222222  0.22222222
     231 -0.44444444 -0.22222222  0.22222222      54  0.44444444  0.22222222  0.22222222
     232 -0.33333333 -0.22222222  0.22222222      53  0.22222222  0.22222222  0.33333333
     233 -0.22222222 -0.22222222  0.22222222      52  0.22222222  0.22222222  0.22222222
     234 -0.11111111 -0.22222222  0.22222222      35  0.22222222  0.22222222  0.11111111
     235  0.00000000 -0.11111111  0.22222222       8  0.22222222  0.11111111  0.00000000
     236  0.11111111 -0.11111111  0.22222222      31  0.22222222  0.11111111  0.11111111
     237  0.22222222 -0.11111111  0.22222222      49  0.22222222  0.11111111  0.22222222
     238  0.33333333 -0.11111111  0.22222222      50  0.33333333  0.11111111  0.22222222
     239  0.44444444 -0.11111111  0.22222222      51  0.44444444  0.11111111  0.22222222
     240 -0.44444444 -0.11111111  0.22222222      51  0.44444444  0.11111111  0.22222222
     241 -0.33333333 -0.11111111  0.22222222      50  0.33333333  0.11111111  0.22222222
     242 -0.22222222 -0.11111111  0.22222222      49  0.22222222  0.11111111  0.22222222
     243 -0.11111111 -0.11111111  0.22222222      31  0.22222222  0.11111111  0.11111111
     244  0.00000000  0.00000000  0.33333333       4  0.33333333  0.00000000  0.00000000
     245  0.11111111  0.00000000  0.33333333      28  0.33333333  0.00000000  0.11111111
     246  0.22222222  0.00000000  0.33333333      47  0.33333333  0.00000000  0.22222222
     247  0.33333333  0.00000000  0.33333333      61  0.33333333  0.00000000  0.33333333
     248  0.44444444  0.00000000  0.33333333      62  0.44444444  0.00000000  0.33333333
     249 -0.44444444  0.00000000  0.33333333      62  0.44444444  0.00000000  0.33333333
     250 -0.33333333  0.00000000  0.33333333      61  0.33333333  0.00000000  0.33333333
     251 -0.22222222  0.00000000  0.33333333      47  0.33333333  0.00000000  0.22222222
     252 -0.11111111  0.00000000  0.33333333      28  0.33333333  0.00000000  0.11111111
     253  0.00000000  0.11111111  0.33333333       9  0.33333333  0.11111111  0.00000000
     254  0.11111111  0.11111111  0.33333333      32  0.33333333  0.11111111  0.11111111
     255  0.22222222  0.11111111  0.33333333      50  0.33333333  0.11111111  0.22222222
     256  0.33333333  0.11111111  0.33333333      63  0.33333333  0.11111111  0.33333333
     257  0.44444444  0.11111111  0.33333333      64  0.44444444  0.11111111  0.33333333
     258 -0.44444444  0.11111111  0.33333333      64  0.44444444  0.11111111  0.33333333
     259 -0.33333333  0.11111111  0.33333333      63  0.33333333  0.11111111  0.33333333
     260 -0.22222222  0.11111111  0.33333333      50  0.33333333  0.11111111  0.22222222
     261 -0.11111111  0.11111111  0.33333333      32  0.33333333  0.11111111  0.11111111
     262  0.00000000  0.22222222  0.33333333      14  0.33333333  0.22222222  0.00000000
     263  0.11111111  0.22222222  0.33333333      36  0.11111111  0.22222222  0.33333333
     264  0.22222222  0.22222222  0.33333333      53  0.22222222  0.22222222  0.33333333
     265  0.33333333  0.22222222  0.33333333      65  0.33333333  0.22222222  0.33333333
     266  0.44444444  0.22222222  0.33333333      66  0.44444444  0.22222222  0.33333333
     267 -0.44444444  0.22222222  0.33333333      66  0.44444444  0.22222222  0.33333333
     268 -0.33333333  0.22222222  0.33333333      65  0.33333333  0.22222222  0.33333333
     269 -0.22222222  0.22222222  0.33333333      53  0.22222222  0.22222222  0.33333333
     270 -0.11111111  0.22222222  0.33333333      36  0.11111111  0.22222222  0.33333333
     271  0.00000000  0.33333333  0.33333333      19  0.33333333  0.33333333  0.00000000
     272  0.11111111  0.33333333  0.33333333      40  0.11111111  0.33333333  0.33333333
     273  0.22222222  0.33333333  0.33333333      56  0.33333333  0.33333333  0.22222222
     274  0.33333333  0.33333333  0.33333333      67  0.33333333  0.33333333  0.33333333
     275  0.44444444  0.33333333  0.33333333      68  0.44444444  0.33333333  0.33333333
     276 -0.44444444  0.33333333  0.33333333      68  0.44444444  0.33333333  0.33333333
     277 -0.33333333  0.33333333  0.33333333      67  0.33333333  0.33333333  0.33333333
     278 -0.22222222  0.33333333  0.33333333      56  0.33333333  0.33333333  0.22222222
     279 -0.11111111  0.33333333  0.33333333      40  0.11111111  0.33333333  0.33333333
     280  0.00000000  0.44444444  0.33333333      24  0.33333333  0.44444444  0.00000000
     281  0.11111111  0.44444444  0.33333333      44  0.33333333  0.44444444  0.11111111
     282  0.22222222  0.44444444  0.33333333      59  0.33333333  0.44444444  0.22222222
     283  0.33333333  0.44444444  0.33333333      69  0.33333333  0.44444444  0.33333333
     284  0.44444444  0.44444444  0.33333333      70  0.44444444  0.44444444  0.33333333
     285 -0.44444444  0.44444444  0.33333333      70  0.44444444  0.44444444  0.33333333
     286 -0.33333333  0.44444444  0.33333333      69  0.33333333  0.44444444  0.33333333
     287 -0.22222222  0.44444444  0.33333333      59  0.33333333  0.44444444  0.22222222
     288 -0.11111111  0.44444444  0.33333333      44  0.33333333  0.44444444  0.11111111
     289  0.00000000 -0.44444444  0.33333333      24  0.33333333  0.44444444  0.00000000
     290  0.11111111 -0.44444444  0.33333333      44  0.33333333  0.44444444  0.11111111
     291  0.22222222 -0.44444444  0.33333333      59  0.33333333  0.44444444  0.22222222
     292  0.33333333 -0.44444444  0.33333333      69  0.33333333  0.44444444  0.33333333
     293  0.44444444 -0.44444444  0.33333333      70  0.44444444  0.44444444  0.33333333
     294 -0.44444444 -0.44444444  0.33333333      70  0.44444444  0.44444444  0.33333333
     295 -0.33333333 -0.44444444  0.33333333      69  0.33333333  0.44444444  0.33333333
     296 -0.22222222 -0.44444444  0.33333333      59  0.33333333  0.44444444  0.22222222
     297 -0.11111111 -0.44444444  0.33333333      44  0.33333333  0.44444444  0.11111111
     298  0.00000000 -0.33333333  0.33333333      19  0.33333333  0.33333333  0.00000000
     299  0.11111111 -0.33333333  0.33333333      40  0.11111111  0.33333333  0.33333333
     300  0.22222222 -0.33333333  0.33333333      56  0.33333333  0.33333333  0.22222222
     301  0.33333333 -0.33333333  0.33333333      67  0.33333333  0.33333333  0.33333333
     302  0.44444444 -0.33333333  0.33333333      68  0.44444444  0.33333333  0.33333333
     303 -0.44444444 -0.33333333  0.33333333      68  0.44444444  0.33333333  0.33333333
     304 -0.33333333 -0.33333333  0.33333333      67  0.33333333  0.33333333  0.33333333
     305 -0.22222222 -0.33333333  0.33333333      56  0.33333333  0.33333333  0.22222222
     306 -0.11111111 -0.33333333  0.33333333      40  0.11111111  0.33333333  0.33333333
     307  0.00000000 -0.22222222  0.33333333      14  0.33333333  0.22222222  0.00000000
     308  0.11111111 -0.22222222  0.33333333      36  0.11111111  0.22222222  0.33333333
     309  0.22222222 -0.22222222  0.33333333      53  0.22222222  0.22222222  0.33333333
     310  0.33333333 -0.22222222  0.33333333      65  0.33333333  0.22222222  0.33333333
     311  0.44444444 -0.22222222  0.33333333      66  0.44444444  0.22222222  0.33333333
     312 -0.44444444 -0.22222222  0.33333333      66  0.44444444  0.22222222  0.33333333
     313 -0.33333333 -0.22222222  0.33333333      65  0.33333333  0.22222222  0.33333333
     314 -0.22222222 -0.22222222  0.33333333      53  0.22222222  0.22222222  0.33333333
     315 -0.11111111 -0.22222222  0.33333333      36  0.11111111  0.22222222  0.33333333
     316  0.00000000 -0.11111111  0.33333333       9  0.33333333  0.11111111  0.00000000
     317  0.11111111 -0.11111111  0.33333333      32  0.33333333  0.11111111  0.11111111
     318  0.22222222 -0.11111111  0.33333333      50  0.33333333  0.11111111  0.22222222
     319  0.33333333 -0.11111111  0.33333333      63  0.33333333  0.11111111  0.33333333
     320  0.44444444 -0.11111111  0.33333333      64  0.44444444  0.11111111  0.33333333
     321 -0.44444444 -0.11111111  0.33333333      64  0.44444444  0.11111111  0.33333333
     322 -0.33333333 -0.11111111  0.33333333      63  0.33333333  0.11111111  0.33333333
     323 -0.22222222 -0.11111111  0.33333333      50  0.33333333  0.11111111  0.22222222
     324 -0.11111111 -0.11111111  0.33333333      32  0.33333333  0.11111111  0.11111111
     325  0.00000000  0.00000000  0.44444444       5  0.44444444  0.00000000  0.00000000
     326  0.11111111  0.00000000  0.44444444      29  0.44444444  0.00000000  0.11111111
     327  0.22222222  0.00000000  0.44444444      48  0.44444444  0.00000000  0.22222222
     328  0.33333333  0.00000000  0.44444444      62  0.44444444  0.00000000  0.33333333
     329  0.44444444  0.00000000  0.44444444      71  0.44444444  0.00000000  0.44444444
     330 -0.44444444  0.00000000  0.44444444      71  0.44444444  0.00000000  0.44444444
     331 -0.33333333  0.00000000  0.44444444      62  0.44444444  0.00000000  0.33333333
     332 -0.22222222  0.00000000  0.44444444      48  0.44444444  0.00000000  0.22222222
     333 -0.11111111  0.00000000  0.44444444      29  0.44444444  0.00000000  0.11111111
     334  0.00000000  0.11111111  0.44444444      10  0.44444444  0.11111111  0.00000000
     335  0.11111111  0.11111111  0.44444444      33  0.11111111  0.11111111  0.44444444
     336  0.22222222  0.11111111  0.44444444      51  0.44444444  0.11111111  0.22222222
     337  0.33333333  0.11111111  0.44444444      64  0.44444444  0.11111111  0.33333333
     338  0.44444444  0.11111111  0.44444444      72  0.44444444  0.11111111  0.44444444
     339 -0.44444444  0.11111111  0.44444444      72  0.44444444  0.11111111  0.44444444
     340 -0.33333333  0.11111111  0.44444444      64  0.44444444  0.11111111  0.33333333
     341 -0.22222222  0.11111111  0.44444444      51  0.44444444  0.11111111  0.22222222
     342 -0.11111111  0.11111111  0.44444444      33  0.11111111  0.11111111  0.44444444
     343  0.00000000  0.22222222  0.44444444      15  0.44444444  0.22222222  0.00000000
     344  0.11111111  0.22222222  0.44444444      37  0.44444444  0.22222222  0.11111111
     345  0.22222222  0.22222222  0.44444444      54  0.44444444  0.22222222  0.22222222
     346  0.33333333  0.22222222  0.44444444      66  0.44444444  0.22222222  0.33333333
     347  0.44444444  0.22222222  0.44444444      73  0.44444444  0.22222222  0.44444444
     348 -0.44444444  0.22222222  0.44444444      73  0.44444444  0.22222222  0.44444444
     349 -0.33333333  0.22222222  0.44444444      66  0.44444444  0.22222222  0.33333333
     350 -0.22222222  0.22222222  0.44444444      54  0.44444444  0.22222222  0.22222222
     351 -0.11111111  0.22222222  0.44444444      37  0.44444444  0.22222222  0.11111111
     352  0.00000000  0.33333333  0.44444444      20  0.44444444  0.33333333  0.00000000
     353  0.11111111  0.33333333  0.44444444      41  0.44444444  0.33333333  0.11111111
     354  0.22222222  0.33333333  0.44444444      57  0.44444444  0.33333333  0.22222222
     355  0.33333333  0.33333333  0.44444444      68  0.44444444  0.33333333  0.33333333
     356  0.44444444  0.33333333  0.44444444      74  0.44444444  0.33333333  0.44444444
     357 -0.44444444  0.33333333  0.44444444      74  0.44444444  0.33333333  0.44444444
     358 -0.33333333  0.33333333  0.44444444      68  0.44444444  0.33333333  0.33333333
     359 -0.22222222  0.33333333  0.44444444      57  0.44444444  0.33333333  0.22222222
     360 -0.11111111  0.33333333  0.44444444      41  0.44444444  0.33333333  0.11111111
     361  0.00000000  0.44444444  0.44444444      25  0.44444444  0.44444444  0.00000000
     362  0.11111111  0.44444444  0.44444444      45  0.44444444  0.44444444  0.11111111
     363  0.22222222  0.44444444  0.44444444      60  0.44444444  0.44444444  0.22222222
     364  0.33333333  0.44444444  0.44444444      70  0.44444444  0.44444444  0.33333333
     365  0.44444444  0.44444444  0.44444444      75  0.44444444  0.44444444  0.44444444
     366 -0.44444444  0.44444444  0.44444444      75  0.44444444  0.44444444  0.44444444
     367 -0.33333333  0.44444444  0.44444444      70  0.44444444  0.44444444  0.33333333
     368 -0.22222222  0.44444444  0.44444444      60  0.44444444  0.44444444  0.22222222
     369 -0.11111111  0.44444444  0.44444444      45  0.44444444  0.44444444  0.11111111
     370  0.00000000 -0.44444444  0.44444444      25  0.44444444  0.44444444  0.00000000
     371  0.11111111 -0.44444444  0.44444444      45  0.44444444  0.44444444  0.11111111
     372  0.22222222 -0.44444444  0.44444444      60  0.44444444  0.44444444  0.22222222
     373  0.33333333 -0.44444444  0.44444444      70  0.44444444  0.44444444  0.33333333
     374  0.44444444 -0.44444444  0.44444444      75  0.44444444  0.44444444  0.44444444
     375 -0.44444444 -0.44444444  0.44444444      75  0.44444444  0.44444444  0.44444444
     376 -0.33333333 -0.44444444  0.44444444      70  0.44444444  0.44444444  0.33333333
     377 -0.22222222 -0.44444444  0.44444444      60  0.44444444  0.44444444  0.22222222
     378 -0.11111111 -0.44444444  0.44444444      45  0.44444444  0.44444444  0.11111111
     379  0.00000000 -0.33333333  0.44444444      20  0.44444444  0.33333333  0.00000000
     380  0.11111111 -0.33333333  0.44444444      41  0.44444444  0.33333333  0.11111111
     381  0.22222222 -0.33333333  0.44444444      57  0.44444444  0.33333333  0.22222222
     382  0.33333333 -0.33333333  0.44444444      68  0.44444444  0.33333333  0.33333333
     383  0.44444444 -0.33333333  0.44444444      74  0.44444444  0.33333333  0.44444444
     384 -0.44444444 -0.33333333  0.44444444      74  0.44444444  0.33333333  0.44444444
     385 -0.33333333 -0.33333333  0.44444444      68  0.44444444  0.33333333  0.33333333
     386 -0.22222222 -0.33333333  0.44444444      57  0.44444444  0.33333333  0.22222222
     387 -0.11111111 -0.33333333  0.44444444      41  0.44444444  0.33333333  0.11111111
     388  0.00000000 -0.22222222  0.44444444      15  0.44444444  0.22222222  0.00000000
     389  0.11111111 -0.22222222  0.44444444      37  0.44444444  0.22222222  0.11111111
     390  0.22222222 -0.22222222  0.44444444      54  0.44444444  0.22222222  0.22222222
     391  0.33333333 -0.22222222  0.44444444      66  0.44444444  0.22222222  0.33333333
     392  0.44444444 -0.22222222  0.44444444      73  0.44444444  0.22222222  0.44444444
     393 -0.44444444 -0.22222222  0.44444444      73  0.44444444  0.22222222  0.44444444
     394 -0.33333333 -0.22222222  0.44444444      66  0.44444444  0.22222222  0.33333333
     395 -0.22222222 -0.22222222  0.44444444      54  0.44444444  0.22222222  0.22222222
     396 -0.11111111 -0.22222222  0.44444444      37  0.44444444  0.22222222  0.11111111
     397  0.00000000 -0.11111111  0.44444444      10  0.44444444  0.11111111  0.00000000
     398  0.11111111 -0.11111111  0.44444444      33  0.11111111  0.11111111  0.44444444
     399  0.22222222 -0.11111111  0.44444444      51  0.44444444  0.11111111  0.22222222
     400  0.33333333 -0.11111111  0.44444444      64  0.44444444  0.11111111  0.33333333
     401  0.44444444 -0.11111111  0.44444444      72  0.44444444  0.11111111  0.44444444
     402 -0.44444444 -0.11111111  0.44444444      72  0.44444444  0.11111111  0.44444444
     403 -0.33333333 -0.11111111  0.44444444      64  0.44444444  0.11111111  0.33333333
     404 -0.22222222 -0.11111111  0.44444444      51  0.44444444  0.11111111  0.22222222
     405 -0.11111111 -0.11111111  0.44444444      33  0.11111111  0.11111111  0.44444444
     406  0.00000000  0.00000000 -0.44444444       5  0.44444444  0.00000000  0.00000000
     407  0.11111111  0.00000000 -0.44444444      29  0.44444444  0.00000000  0.11111111
     408  0.22222222  0.00000000 -0.44444444      48  0.44444444  0.00000000  0.22222222
     409  0.33333333  0.00000000 -0.44444444      62  0.44444444  0.00000000  0.33333333
     410  0.44444444  0.00000000 -0.44444444      71  0.44444444  0.00000000  0.44444444
     411 -0.44444444  0.00000000 -0.44444444      71  0.44444444  0.00000000  0.44444444
     412 -0.33333333  0.00000000 -0.44444444      62  0.44444444  0.00000000  0.33333333
     413 -0.22222222  0.00000000 -0.44444444      48  0.44444444  0.00000000  0.22222222
     414 -0.11111111  0.00000000 -0.44444444      29  0.44444444  0.00000000  0.11111111
     415  0.00000000  0.11111111 -0.44444444      10  0.44444444  0.11111111  0.00000000
     416  0.11111111  0.11111111 -0.44444444      33  0.11111111  0.11111111  0.44444444
     417  0.22222222  0.11111111 -0.44444444      51  0.44444444  0.11111111  0.22222222
     418  0.33333333  0.11111111 -0.44444444      64  0.44444444  0.11111111  0.33333333
     419  0.44444444  0.11111111 -0.44444444      72  0.44444444  0.11111111  0.44444444
     420 -0.44444444  0.11111111 -0.44444444      72  0.44444444  0.11111111  0.44444444
     421 -0.33333333  0.11111111 -0.44444444      64  0.44444444  0.11111111  0.33333333
     422 -0.22222222  0.11111111 -0.44444444      51  0.44444444  0.11111111  0.22222222
     423 -0.11111111  0.11111111 -0.44444444      33  0.11111111  0.11111111  0.44444444
     424  0.00000000  0.22222222 -0.44444444      15  0.44444444  0.22222222  0.00000000
     425  0.11111111  0.22222222 -0.44444444      37  0.44444444  0.22222222  0.11111111
     426  0.22222222  0.22222222 -0.44444444      54  0.44444444  0.22222222  0.22222222
     427  0.33333333  0.22222222 -0.44444444      66  0.44444444  0.22222222  0.33333333
     428  0.44444444  0.22222222 -0.44444444      73  0.44444444  0.22222222  0.44444444
     429 -0.44444444  0.22222222 -0.44444444      73  0.44444444  0.22222222  0.44444444
     430 -0.33333333  0.22222222 -0.44444444      66  0.44444444  0.22222222  0.33333333
     431 -0.22222222  0.22222222 -0.44444444      54  0.44444444  0.22222222  0.22222222
     432 -0.11111111  0.22222222 -0.44444444      37  0.44444444  0.22222222  0.11111111
     433  0.00000000  0.33333333 -0.44444444      20  0.44444444  0.33333333  0.00000000
     434  0.11111111  0.33333333 -0.44444444      41  0.44444444  0.33333333  0.11111111
     435  0.22222222  0.33333333 -0.44444444      57  0.44444444  0.33333333  0.22222222
     436  0.33333333  0.33333333 -0.44444444      68  0.44444444  0.33333333  0.33333333
     437  0.44444444  0.33333333 -0.44444444      74  0.44444444  0.33333333  0.44444444
     438 -0.44444444  0.33333333 -0.44444444      74  0.44444444  0.33333333  0.44444444
     439 -0.33333333  0.33333333 -0.44444444      68  0.44444444  0.33333333  0.33333333
     440 -0.22222222  0.33333333 -0.44444444      57  0.44444444  0.33333333  0.22222222
     441 -0.11111111  0.33333333 -0.44444444      41  0.44444444  0.33333333  0.11111111
     442  0.00000000  0.44444444 -0.44444444      25  0.44444444  0.44444444  0.00000000
     443  0.11111111  0.44444444 -0.44444444      45  0.44444444  0.44444444  0.11111111
     444  0.22222222  0.44444444 -0.44444444      60  0.44444444  0.44444444  0.22222222
     445  0.33333333  0.44444444 -0.44444444      70  0.44444444  0.44444444  0.33333333
     446  0.44444444  0.44444444 -0.44444444      75  0.44444444  0.44444444  0.44444444
     447 -0.44444444  0.44444444 -0.44444444      75  0.44444444  0.44444444  0.44444444
     448 -0.33333333  0.44444444 -0.44444444      70  0.44444444  0.44444444  0.33333333
     449 -0.22222222  0.44444444 -0.44444444      60  0.44444444  0.44444444  0.22222222
     450 -0.11111111  0.44444444 -0.44444444      45  0.44444444  0.44444444  0.11111111
     451  0.00000000 -0.44444444 -0.44444444      25  0.44444444  0.44444444  0.00000000
     452  0.11111111 -0.44444444 -0.44444444      45  0.44444444  0.44444444  0.11111111
     453  0.22222222 -0.44444444 -0.44444444      60  0.44444444  0.44444444  0.22222222
     454  0.33333333 -0.44444444 -0.44444444      70  0.44444444  0.44444444  0.33333333
     455  0.44444444 -0.44444444 -0.44444444      75  0.44444444  0.44444444  0.44444444
     456 -0.44444444 -0.44444444 -0.44444444      75  0.44444444  0.44444444  0.44444444
     457 -0.33333333 -0.44444444 -0.44444444      70  0.44444444  0.44444444  0.33333333
     458 -0.22222222 -0.44444444 -0.44444444      60  0.44444444  0.44444444  0.22222222
     459 -0.11111111 -0.44444444 -0.44444444      45  0.44444444  0.44444444  0.11111111
     460  0.00000000 -0.33333333 -0.44444444      20  0.44444444  0.33333333  0.00000000
     461  0.11111111 -0.33333333 -0.44444444      41  0.44444444  0.33333333  0.11111111
     462  0.22222222 -0.33333333 -0.44444444      57  0.44444444  0.33333333  0.22222222
     463  0.33333333 -0.33333333 -0.44444444      68  0.44444444  0.33333333  0.33333333
     464  0.44444444 -0.33333333 -0.44444444      74  0.44444444  0.33333333  0.44444444
     465 -0.44444444 -0.33333333 -0.44444444      74  0.44444444  0.33333333  0.44444444
     466 -0.33333333 -0.33333333 -0.44444444      68  0.44444444  0.33333333  0.33333333
     467 -0.22222222 -0.33333333 -0.44444444      57  0.44444444  0.33333333  0.22222222
     468 -0.11111111 -0.33333333 -0.44444444      41  0.44444444  0.33333333  0.11111111
     469  0.00000000 -0.22222222 -0.44444444      15  0.44444444  0.22222222  0.00000000
     470  0.11111111 -0.22222222 -0.44444444      37  0.44444444  0.22222222  0.11111111
     471  0.22222222 -0.22222222 -0.44444444      54  0.44444444  0.22222222  0.22222222
     472  0.33333333 -0.22222222 -0.44444444      66  0.44444444  0.22222222  0.33333333
     473  0.44444444 -0.22222222 -0.44444444      73  0.44444444  0.22222222  0.44444444
     474 -0.44444444 -0.22222222 -0.44444444      73  0.44444444  0.22222222  0.44444444
     475 -0.33333333 -0.22222222 -0.44444444      66  0.44444444  0.22222222  0.33333333
     476 -0.22222222 -0.22222222 -0.44444444      54  0.44444444  0.22222222  0.22222222
     477 -0.11111111 -0.22222222 -0.44444444      37  0.44444444  0.22222222  0.11111111
     478  0.00000000 -0.11111111 -0.44444444      10  0.44444444  0.11111111  0.00000000
     479  0.11111111 -0.11111111 -0.44444444      33  0.11111111  0.11111111  0.44444444
     480  0.22222222 -0.11111111 -0.44444444      51  0.44444444  0.11111111  0.22222222
     481  0.33333333 -0.11111111 -0.44444444      64  0.44444444  0.11111111  0.33333333
     482  0.44444444 -0.11111111 -0.44444444      72  0.44444444  0.11111111  0.44444444
     483 -0.44444444 -0.11111111 -0.44444444      72  0.44444444  0.11111111  0.44444444
     484 -0.33333333 -0.11111111 -0.44444444      64  0.44444444  0.11111111  0.33333333
     485 -0.22222222 -0.11111111 -0.44444444      51  0.44444444  0.11111111  0.22222222
     486 -0.11111111 -0.11111111 -0.44444444      33  0.11111111  0.11111111  0.44444444
     487  0.00000000  0.00000000 -0.33333333       4  0.33333333  0.00000000  0.00000000
     488  0.11111111  0.00000000 -0.33333333      28  0.33333333  0.00000000  0.11111111
     489  0.22222222  0.00000000 -0.33333333      47  0.33333333  0.00000000  0.22222222
     490  0.33333333  0.00000000 -0.33333333      61  0.33333333  0.00000000  0.33333333
     491  0.44444444  0.00000000 -0.33333333      62  0.44444444  0.00000000  0.33333333
     492 -0.44444444  0.00000000 -0.33333333      62  0.44444444  0.00000000  0.33333333
     493 -0.33333333  0.00000000 -0.33333333      61  0.33333333  0.00000000  0.33333333
     494 -0.22222222  0.00000000 -0.33333333      47  0.33333333  0.00000000  0.22222222
     495 -0.11111111  0.00000000 -0.33333333      28  0.33333333  0.00000000  0.11111111
     496  0.00000000  0.11111111 -0.33333333       9  0.33333333  0.11111111  0.00000000
     497  0.11111111  0.11111111 -0.33333333      32  0.33333333  0.11111111  0.11111111
     498  0.22222222  0.11111111 -0.33333333      50  0.33333333  0.11111111  0.22222222
     499  0.33333333  0.11111111 -0.33333333      63  0.33333333  0.11111111  0.33333333
     500  0.44444444  0.11111111 -0.33333333      64  0.44444444  0.11111111  0.33333333
     501 -0.44444444  0.11111111 -0.33333333      64  0.44444444  0.11111111  0.33333333
     502 -0.33333333  0.11111111 -0.33333333      63  0.33333333  0.11111111  0.33333333
     503 -0.22222222  0.11111111 -0.33333333      50  0.33333333  0.11111111  0.22222222
     504 -0.11111111  0.11111111 -0.33333333      32  0.33333333  0.11111111  0.11111111
     505  0.00000000  0.22222222 -0.33333333      14  0.33333333  0.22222222  0.00000000
     506  0.11111111  0.22222222 -0.33333333      36  0.11111111  0.22222222  0.33333333
     507  0.22222222  0.22222222 -0.33333333      53  0.22222222  0.22222222  0.33333333
     508  0.33333333  0.22222222 -0.33333333      65  0.33333333  0.22222222  0.33333333
     509  0.44444444  0.22222222 -0.33333333      66  0.44444444  0.22222222  0.33333333
     510 -0.44444444  0.22222222 -0.33333333      66  0.44444444  0.22222222  0.33333333
     511 -0.33333333  0.22222222 -0.33333333      65  0.33333333  0.22222222  0.33333333
     512 -0.22222222  0.22222222 -0.33333333      53  0.22222222  0.22222222  0.33333333
     513 -0.11111111  0.22222222 -0.33333333      36  0.11111111  0.22222222  0.33333333
     514  0.00000000  0.33333333 -0.33333333      19  0.33333333  0.33333333  0.00000000
     515  0.11111111  0.33333333 -0.33333333      40  0.11111111  0.33333333  0.33333333
     516  0.22222222  0.33333333 -0.33333333      56  0.33333333  0.33333333  0.22222222
     517  0.33333333  0.33333333 -0.33333333      67  0.33333333  0.33333333  0.33333333
     518  0.44444444  0.33333333 -0.33333333      68  0.44444444  0.33333333  0.33333333
     519 -0.44444444  0.33333333 -0.33333333      68  0.44444444  0.33333333  0.33333333
     520 -0.33333333  0.33333333 -0.33333333      67  0.33333333  0.33333333  0.33333333
     521 -0.22222222  0.33333333 -0.33333333      56  0.33333333  0.33333333  0.22222222
     522 -0.11111111  0.33333333 -0.33333333      40  0.11111111  0.33333333  0.33333333
     523  0.00000000  0.44444444 -0.33333333      24  0.33333333  0.44444444  0.00000000
     524  0.11111111  0.44444444 -0.33333333      44  0.33333333  0.44444444  0.11111111
     525  0.22222222  0.44444444 -0.33333333      59  0.33333333  0.44444444  0.22222222
     526  0.33333333  0.44444444 -0.33333333      69  0.33333333  0.44444444  0.33333333
     527  0.44444444  0.44444444 -0.33333333      70  0.44444444  0.44444444  0.33333333
     528 -0.44444444  0.44444444 -0.33333333      70  0.44444444  0.44444444  0.33333333
     529 -0.33333333  0.44444444 -0.33333333      69  0.33333333  0.44444444  0.33333333
     530 -0.22222222  0.44444444 -0.33333333      59  0.33333333  0.44444444  0.22222222
     531 -0.11111111  0.44444444 -0.33333333      44  0.33333333  0.44444444  0.11111111
     532  0.00000000 -0.44444444 -0.33333333      24  0.33333333  0.44444444  0.00000000
     533  0.11111111 -0.44444444 -0.33333333      44  0.33333333  0.44444444  0.11111111
     534  0.22222222 -0.44444444 -0.33333333      59  0.33333333  0.44444444  0.22222222
     535  0.33333333 -0.44444444 -0.33333333      69  0.33333333  0.44444444  0.33333333
     536  0.44444444 -0.44444444 -0.33333333      70  0.44444444  0.44444444  0.33333333
     537 -0.44444444 -0.44444444 -0.33333333      70  0.44444444  0.44444444  0.33333333
     538 -0.33333333 -0.44444444 -0.33333333      69  0.33333333  0.44444444  0.33333333
     539 -0.22222222 -0.44444444 -0.33333333      59  0.33333333  0.44444444  0.22222222
     540 -0.11111111 -0.44444444 -0.33333333      44  0.33333333  0.44444444  0.11111111
     541  0.00000000 -0.33333333 -0.33333333      19  0.33333333  0.33333333  0.00000000
     542  0.11111111 -0.33333333 -0.33333333      40  0.11111111  0.33333333  0.33333333
     543  0.22222222 -0.33333333 -0.33333333      56  0.33333333  0.33333333  0.22222222
     544  0.33333333 -0.33333333 -0.33333333      67  0.33333333  0.33333333  0.33333333
     545  0.44444444 -0.33333333 -0.33333333      68  0.44444444  0.33333333  0.33333333
     546 -0.44444444 -0.33333333 -0.33333333      68  0.44444444  0.33333333  0.33333333
     547 -0.33333333 -0.33333333 -0.33333333      67  0.33333333  0.33333333  0.33333333
     548 -0.22222222 -0.33333333 -0.33333333      56  0.33333333  0.33333333  0.22222222
     549 -0.11111111 -0.33333333 -0.33333333      40  0.11111111  0.33333333  0.33333333
     550  0.00000000 -0.22222222 -0.33333333      14  0.33333333  0.22222222  0.00000000
     551  0.11111111 -0.22222222 -0.33333333      36  0.11111111  0.22222222  0.33333333
     552  0.22222222 -0.22222222 -0.33333333      53  0.22222222  0.22222222  0.33333333
     553  0.33333333 -0.22222222 -0.33333333      65  0.33333333  0.22222222  0.33333333
     554  0.44444444 -0.22222222 -0.33333333      66  0.44444444  0.22222222  0.33333333
     555 -0.44444444 -0.22222222 -0.33333333      66  0.44444444  0.22222222  0.33333333
     556 -0.33333333 -0.22222222 -0.33333333      65  0.33333333  0.22222222  0.33333333
     557 -0.22222222 -0.22222222 -0.33333333      53  0.22222222  0.22222222  0.33333333
     558 -0.11111111 -0.22222222 -0.33333333      36  0.11111111  0.22222222  0.33333333
     559  0.00000000 -0.11111111 -0.33333333       9  0.33333333  0.11111111  0.00000000
     560  0.11111111 -0.11111111 -0.33333333      32  0.33333333  0.11111111  0.11111111
     561  0.22222222 -0.11111111 -0.33333333      50  0.33333333  0.11111111  0.22222222
     562  0.33333333 -0.11111111 -0.33333333      63  0.33333333  0.11111111  0.33333333
     563  0.44444444 -0.11111111 -0.33333333      64  0.44444444  0.11111111  0.33333333
     564 -0.44444444 -0.11111111 -0.33333333      64  0.44444444  0.11111111  0.33333333
     565 -0.33333333 -0.11111111 -0.33333333      63  0.33333333  0.11111111  0.33333333
     566 -0.22222222 -0.11111111 -0.33333333      50  0.33333333  0.11111111  0.22222222
     567 -0.11111111 -0.11111111 -0.33333333      32  0.33333333  0.11111111  0.11111111
     568  0.00000000  0.00000000 -0.22222222       3  0.22222222  0.00000000  0.00000000
     569  0.11111111  0.00000000 -0.22222222      27  0.22222222  0.00000000  0.11111111
     570  0.22222222  0.00000000 -0.22222222      46  0.22222222  0.00000000  0.22222222
     571  0.33333333  0.00000000 -0.22222222      47  0.33333333  0.00000000  0.22222222
     572  0.44444444  0.00000000 -0.22222222      48  0.44444444  0.00000000  0.22222222
     573 -0.44444444  0.00000000 -0.22222222      48  0.44444444  0.00000000  0.22222222
     574 -0.33333333  0.00000000 -0.22222222      47  0.33333333  0.00000000  0.22222222
     575 -0.22222222  0.00000000 -0.22222222      46  0.22222222  0.00000000  0.22222222
     576 -0.11111111  0.00000000 -0.22222222      27  0.22222222  0.00000000  0.11111111
     577  0.00000000  0.11111111 -0.22222222       8  0.22222222  0.11111111  0.00000000
     578  0.11111111  0.11111111 -0.22222222      31  0.22222222  0.11111111  0.11111111
     579  0.22222222  0.11111111 -0.22222222      49  0.22222222  0.11111111  0.22222222
     580  0.33333333  0.11111111 -0.22222222      50  0.33333333  0.11111111  0.22222222
     581  0.44444444  0.11111111 -0.22222222      51  0.44444444  0.11111111  0.22222222
     582 -0.44444444  0.11111111 -0.22222222      51  0.44444444  0.11111111  0.22222222
     583 -0.33333333  0.11111111 -0.22222222      50  0.33333333  0.11111111  0.22222222
     584 -0.22222222  0.11111111 -0.22222222      49  0.22222222  0.11111111  0.22222222
     585 -0.11111111  0.11111111 -0.22222222      31  0.22222222  0.11111111  0.11111111
     586  0.00000000  0.22222222 -0.22222222      13  0.22222222  0.22222222  0.00000000
     587  0.11111111  0.22222222 -0.22222222      35  0.22222222  0.22222222  0.11111111
     588  0.22222222  0.22222222 -0.22222222      52  0.22222222  0.22222222  0.22222222
     589  0.33333333  0.22222222 -0.22222222      53  0.22222222  0.22222222  0.33333333
     590  0.44444444  0.22222222 -0.22222222      54  0.44444444  0.22222222  0.22222222
     591 -0.44444444  0.22222222 -0.22222222      54  0.44444444  0.22222222  0.22222222
     592 -0.33333333  0.22222222 -0.22222222      53  0.22222222  0.22222222  0.33333333
     593 -0.22222222  0.22222222 -0.22222222      52  0.22222222  0.22222222  0.22222222
     594 -0.11111111  0.22222222 -0.22222222      35  0.22222222  0.22222222  0.11111111
     595  0.00000000  0.33333333 -0.22222222      18  0.22222222  0.33333333  0.00000000
     596  0.11111111  0.33333333 -0.22222222      39  0.11111111  0.33333333  0.22222222
     597  0.22222222  0.33333333 -0.22222222      55  0.22222222  0.33333333  0.22222222
     598  0.33333333  0.33333333 -0.22222222      56  0.33333333  0.33333333  0.22222222
     599  0.44444444  0.33333333 -0.22222222      57  0.44444444  0.33333333  0.22222222
     600 -0.44444444  0.33333333 -0.22222222      57  0.44444444  0.33333333  0.22222222
     601 -0.33333333  0.33333333 -0.22222222      56  0.33333333  0.33333333  0.22222222
     602 -0.22222222  0.33333333 -0.22222222      55  0.22222222  0.33333333  0.22222222
     603 -0.11111111  0.33333333 -0.22222222      39  0.11111111  0.33333333  0.22222222
     604  0.00000000  0.44444444 -0.22222222      23  0.22222222  0.44444444  0.00000000
     605  0.11111111  0.44444444 -0.22222222      43  0.22222222  0.44444444  0.11111111
     606  0.22222222  0.44444444 -0.22222222      58  0.22222222  0.44444444  0.22222222
     607  0.33333333  0.44444444 -0.22222222      59  0.33333333  0.44444444  0.22222222
     608  0.44444444  0.44444444 -0.22222222      60  0.44444444  0.44444444  0.22222222
     609 -0.44444444  0.44444444 -0.22222222      60  0.44444444  0.44444444  0.22222222
     610 -0.33333333  0.44444444 -0.22222222      59  0.33333333  0.44444444  0.22222222
     611 -0.22222222  0.44444444 -0.22222222      58  0.22222222  0.44444444  0.22222222
     612 -0.11111111  0.44444444 -0.22222222      43  0.22222222  0.44444444  0.11111111
     613  0.00000000 -0.44444444 -0.22222222      23  0.22222222  0.44444444  0.00000000
     614  0.11111111 -0.44444444 -0.22222222      43  0.22222222  0.44444444  0.11111111
     615  0.22222222 -0.44444444 -0.22222222      58  0.22222222  0.44444444  0.22222222
     616  0.33333333 -0.44444444 -0.22222222      59  0.33333333  0.44444444  0.22222222
     617  0.44444444 -0.44444444 -0.22222222      60  0.44444444  0.44444444  0.22222222
     618 -0.44444444 -0.44444444 -0.22222222      60  0.44444444  0.44444444  0.22222222
     619 -0.33333333 -0.44444444 -0.22222222      59  0.33333333  0.44444444  0.22222222
     620 -0.22222222 -0.44444444 -0.22222222      58  0.22222222  0.44444444  0.22222222
     621 -0.11111111 -0.44444444 -0.22222222      43  0.22222222  0.44444444  0.11111111
     622  0.00000000 -0.33333333 -0.22222222      18  0.22222222  0.33333333  0.00000000
     623  0.11111111 -0.33333333 -0.22222222      39  0.11111111  0.33333333  0.22222222
     624  0.22222222 -0.33333333 -0.22222222      55  0.22222222  0.33333333  0.22222222
     625  0.33333333 -0.33333333 -0.22222222      56  0.33333333  0.33333333  0.22222222
     626  0.44444444 -0.33333333 -0.22222222      57  0.44444444  0.33333333  0.22222222
     627 -0.44444444 -0.33333333 -0.22222222      57  0.44444444  0.33333333  0.22222222
     628 -0.33333333 -0.33333333 -0.22222222      56  0.33333333  0.33333333  0.22222222
     629 -0.22222222 -0.33333333 -0.22222222      55  0.22222222  0.33333333  0.22222222
     630 -0.11111111 -0.33333333 -0.22222222      39  0.11111111  0.33333333  0.22222222
     631  0.00000000 -0.22222222 -0.22222222      13  0.22222222  0.22222222  0.00000000
     632  0.11111111 -0.22222222 -0.22222222      35  0.22222222  0.22222222  0.11111111
     633  0.22222222 -0.22222222 -0.22222222      52  0.22222222  0.22222222  0.22222222
     634  0.33333333 -0.22222222 -0.22222222      53  0.22222222  0.22222222  0.33333333
     635  0.44444444 -0.22222222 -0.22222222      54  0.44444444  0.22222222  0.22222222
     636 -0.44444444 -0.22222222 -0.22222222      54  0.44444444  0.22222222  0.22222222
     637 -0.33333333 -0.22222222 -0.22222222      53  0.22222222  0.22222222  0.33333333
     638 -0.22222222 -0.22222222 -0.22222222      52  0.22222222  0.22222222  0.22222222
     639 -0.11111111 -0.22222222 -0.22222222      35  0.22222222  0.22222222  0.11111111
     640  0.00000000 -0.11111111 -0.22222222       8  0.22222222  0.11111111  0.00000000
     641  0.11111111 -0.11111111 -0.22222222      31  0.22222222  0.11111111  0.11111111
     642  0.22222222 -0.11111111 -0.22222222      49  0.22222222  0.11111111  0.22222222
     643  0.33333333 -0.11111111 -0.22222222      50  0.33333333  0.11111111  0.22222222
     644  0.44444444 -0.11111111 -0.22222222      51  0.44444444  0.11111111  0.22222222
     645 -0.44444444 -0.11111111 -0.22222222      51  0.44444444  0.11111111  0.22222222
     646 -0.33333333 -0.11111111 -0.22222222      50  0.33333333  0.11111111  0.22222222
     647 -0.22222222 -0.11111111 -0.22222222      49  0.22222222  0.11111111  0.22222222
     648 -0.11111111 -0.11111111 -0.22222222      31  0.22222222  0.11111111  0.11111111
     649  0.00000000  0.00000000 -0.11111111       2  0.11111111  0.00000000  0.00000000
     650  0.11111111  0.00000000 -0.11111111      26  0.11111111  0.00000000  0.11111111
     651  0.22222222  0.00000000 -0.11111111      27  0.22222222  0.00000000  0.11111111
     652  0.33333333  0.00000000 -0.11111111      28  0.33333333  0.00000000  0.11111111
     653  0.44444444  0.00000000 -0.11111111      29  0.44444444  0.00000000  0.11111111
     654 -0.44444444  0.00000000 -0.11111111      29  0.44444444  0.00000000  0.11111111
     655 -0.33333333  0.00000000 -0.11111111      28  0.33333333  0.00000000  0.11111111
     656 -0.22222222  0.00000000 -0.11111111      27  0.22222222  0.00000000  0.11111111
     657 -0.11111111  0.00000000 -0.11111111      26  0.11111111  0.00000000  0.11111111
     658  0.00000000  0.11111111 -0.11111111       7  0.11111111  0.11111111  0.00000000
     659  0.11111111  0.11111111 -0.11111111      30  0.11111111  0.11111111  0.11111111
     660  0.22222222  0.11111111 -0.11111111      31  0.22222222  0.11111111  0.11111111
     661  0.33333333  0.11111111 -0.11111111      32  0.33333333  0.11111111  0.11111111
     662  0.44444444  0.11111111 -0.11111111      33  0.11111111  0.11111111  0.44444444
     663 -0.44444444  0.11111111 -0.11111111      33  0.11111111  0.11111111  0.44444444
     664 -0.33333333  0.11111111 -0.11111111      32  0.33333333  0.11111111  0.11111111
     665 -0.22222222  0.11111111 -0.11111111      31  0.22222222  0.11111111  0.11111111
     666 -0.11111111  0.11111111 -0.11111111      30  0.11111111  0.11111111  0.11111111
     667  0.00000000  0.22222222 -0.11111111      12  0.11111111  0.22222222  0.00000000
     668  0.11111111  0.22222222 -0.11111111      34  0.11111111  0.22222222  0.11111111
     669  0.22222222  0.22222222 -0.11111111      35  0.22222222  0.22222222  0.11111111
     670  0.33333333  0.22222222 -0.11111111      36  0.11111111  0.22222222  0.33333333
     671  0.44444444  0.22222222 -0.11111111      37  0.44444444  0.22222222  0.11111111
     672 -0.44444444  0.22222222 -0.11111111      37  0.44444444  0.22222222  0.11111111
     673 -0.33333333  0.22222222 -0.11111111      36  0.11111111  0.22222222  0.33333333
     674 -0.22222222  0.22222222 -0.11111111      35  0.22222222  0.22222222  0.11111111
     675 -0.11111111  0.22222222 -0.11111111      34  0.11111111  0.22222222  0.11111111
     676  0.00000000  0.33333333 -0.11111111      17  0.11111111  0.33333333  0.00000000
     677  0.11111111  0.33333333 -0.11111111      38  0.11111111  0.33333333  0.11111111
     678  0.22222222  0.33333333 -0.11111111      39  0.11111111  0.33333333  0.22222222
     679  0.33333333  0.33333333 -0.11111111      40  0.11111111  0.33333333  0.33333333
     680  0.44444444  0.33333333 -0.11111111      41  0.44444444  0.33333333  0.11111111
     681 -0.44444444  0.33333333 -0.11111111      41  0.44444444  0.33333333  0.11111111
     682 -0.33333333  0.33333333 -0.11111111      40  0.11111111  0.33333333  0.33333333
     683 -0.22222222  0.33333333 -0.11111111      39  0.11111111  0.33333333  0.22222222
     684 -0.11111111  0.33333333 -0.11111111      38  0.11111111  0.33333333  0.11111111
     685  0.00000000  0.44444444 -0.11111111      22  0.11111111  0.44444444  0.00000000
     686  0.11111111  0.44444444 -0.11111111      42  0.11111111  0.44444444  0.11111111
     687  0.22222222  0.44444444 -0.11111111      43  0.22222222  0.44444444  0.11111111
     688  0.33333333  0.44444444 -0.11111111      44  0.33333333  0.44444444  0.11111111
     689  0.44444444  0.44444444 -0.11111111      45  0.44444444  0.44444444  0.11111111
     690 -0.44444444  0.44444444 -0.11111111      45  0.44444444  0.44444444  0.11111111
     691 -0.33333333  0.44444444 -0.11111111      44  0.33333333  0.44444444  0.11111111
     692 -0.22222222  0.44444444 -0.11111111      43  0.22222222  0.44444444  0.11111111
     693 -0.11111111  0.44444444 -0.11111111      42  0.11111111  0.44444444  0.11111111
     694  0.00000000 -0.44444444 -0.11111111      22  0.11111111  0.44444444  0.00000000
     695  0.11111111 -0.44444444 -0.11111111      42  0.11111111  0.44444444  0.11111111
     696  0.22222222 -0.44444444 -0.11111111      43  0.22222222  0.44444444  0.11111111
     697  0.33333333 -0.44444444 -0.11111111      44  0.33333333  0.44444444  0.11111111
     698  0.44444444 -0.44444444 -0.11111111      45  0.44444444  0.44444444  0.11111111
     699 -0.44444444 -0.44444444 -0.11111111      45  0.44444444  0.44444444  0.11111111
     700 -0.33333333 -0.44444444 -0.11111111      44  0.33333333  0.44444444  0.11111111
     701 -0.22222222 -0.44444444 -0.11111111      43  0.22222222  0.44444444  0.11111111
     702 -0.11111111 -0.44444444 -0.11111111      42  0.11111111  0.44444444  0.11111111
     703  0.00000000 -0.33333333 -0.11111111      17  0.11111111  0.33333333  0.00000000
     704  0.11111111 -0.33333333 -0.11111111      38  0.11111111  0.33333333  0.11111111
     705  0.22222222 -0.33333333 -0.11111111      39  0.11111111  0.33333333  0.22222222
     706  0.33333333 -0.33333333 -0.11111111      40  0.11111111  0.33333333  0.33333333
     707  0.44444444 -0.33333333 -0.11111111      41  0.44444444  0.33333333  0.11111111
     708 -0.44444444 -0.33333333 -0.11111111      41  0.44444444  0.33333333  0.11111111
     709 -0.33333333 -0.33333333 -0.11111111      40  0.11111111  0.33333333  0.33333333
     710 -0.22222222 -0.33333333 -0.11111111      39  0.11111111  0.33333333  0.22222222
     711 -0.11111111 -0.33333333 -0.11111111      38  0.11111111  0.33333333  0.11111111
     712  0.00000000 -0.22222222 -0.11111111      12  0.11111111  0.22222222  0.00000000
     713  0.11111111 -0.22222222 -0.11111111      34  0.11111111  0.22222222  0.11111111
     714  0.22222222 -0.22222222 -0.11111111      35  0.22222222  0.22222222  0.11111111
     715  0.33333333 -0.22222222 -0.11111111      36  0.11111111  0.22222222  0.33333333
     716  0.44444444 -0.22222222 -0.11111111      37  0.44444444  0.22222222  0.11111111
     717 -0.44444444 -0.22222222 -0.11111111      37  0.44444444  0.22222222  0.11111111
     718 -0.33333333 -0.22222222 -0.11111111      36  0.11111111  0.22222222  0.33333333
     719 -0.22222222 -0.22222222 -0.11111111      35  0.22222222  0.22222222  0.11111111
     720 -0.11111111 -0.22222222 -0.11111111      34  0.11111111  0.22222222  0.11111111
     721  0.00000000 -0.11111111 -0.11111111       7  0.11111111  0.11111111  0.00000000
     722  0.11111111 -0.11111111 -0.11111111      30  0.11111111  0.11111111  0.11111111
     723  0.22222222 -0.11111111 -0.11111111      31  0.22222222  0.11111111  0.11111111
     724  0.33333333 -0.11111111 -0.11111111      32  0.33333333  0.11111111  0.11111111
     725  0.44444444 -0.11111111 -0.11111111      33  0.11111111  0.11111111  0.44444444
     726 -0.44444444 -0.11111111 -0.11111111      33  0.11111111  0.11111111  0.44444444
     727 -0.33333333 -0.11111111 -0.11111111      32  0.33333333  0.11111111  0.11111111
     728 -0.22222222 -0.11111111 -0.11111111      31  0.22222222  0.11111111  0.11111111
     729 -0.11111111 -0.11111111 -0.11111111      30  0.11111111  0.11111111  0.11111111

