40
Lattice="7.96282978186 0 0 0 7.96282978186 0 0 0 7.96282978186" Properties=species:S:1:pos:R:3:force:R:3 energy=0.0 pbc="T T T"
Ba 1.99070744546 1.99070744546 1.99070744546 0 0 0
Ba 5.97212233639 1.99070744546 1.99070744546 0 0 0
Ba 1.99070744546 5.97212233639 1.99070744546 0 0 0
Ba 5.97212233639 5.97212233639 1.99070744546 0 0 0
Ba 1.99070744546 1.99070744546 5.97212233639 0 0 0
Ba 5.97212233639 1.99070744546 5.97212233639 0 0 0
Ba 1.99070744546 5.97212233639 5.97212233639 0 0 0
Ba 5.97212233639 5.97212233639 5.97212233639 0 0 0
Ti 0 0 0 0 0 0
Ti 3.98141489093 0 0 0 0 0
Ti 0 3.98141489093 0 0 0 0
Ti 3.98141489093 3.98141489093 0 0 0 0
Ti 0 0 3.98141489093 0 0 0
Ti 3.98141489093 0 3.98141489093 0 0 0
Ti 0 3.98141489093 3.98141489093 0 0 0
Ti 3.98141489093 3.98141489093 3.98141489093 0 0 0
O 1.99819114135 0.00748369588558 0 0 0 0
O 5.97212233639 0 0 0 0 0
O 1.99070744546 3.98141489093 0 0 0 0
O 5.97212233639 3.98141489093 0 0 0 0
O 1.99070744546 0 3.98141489093 0 0 0
O 5.97212233639 0 3.98141489093 0 0 0
O 1.99070744546 3.98141489093 3.98141489093 0 0 0
O 5.97212233639 3.98141489093 3.98141489093 0 0 0
O 0 1.99070744546 0 0 0 0
O 3.98141489093 1.99070744546 0 0 0 0
O 0 5.97212233639 0 0 0 0
O 3.98141489093 5.97212233639 0 0 0 0
O 0 1.99070744546 3.98141489093 0 0 0
O 3.98141489093 1.99070744546 3.98141489093 0 0 0
O 0 5.97212233639 3.98141489093 0 0 0
O 3.98141489093 5.97212233639 3.98141489093 0 0 0
O 0 0 1.99070744546 0 0 0
O 3.98141489093 0 1.99070744546 0 0 0
O 0 3.98141489093 1.99070744546 0 0 0
O 3.98141489093 3.98141489093 1.99070744546 0 0 0
O 0 0 5.97212233639 0 0 0
O 3.98141489093 0 5.97212233639 0 0 0
O 0 3.98141489093 5.97212233639 0 0 0
O 3.98141489093 3.98141489093 5.97212233639 0 0 0
