                               nkstot now = 205
K-POINTS DIRECT COORDINATES
 KPOINTS    DIRECT_X    DIRECT_Y    DIRECT_Z  WEIGHT
       1  0.00000000  0.00000000  0.00000000  0.0014
       2  0.11111111  0.00000000  0.00000000  0.0027
       3  0.22222222  0.00000000  0.00000000  0.0027
       4  0.33333333  0.00000000  0.00000000  0.0027
       5  0.44444444  0.00000000  0.00000000  0.0027
       6  0.00000000  0.11111111  0.00000000  0.0027
       7  0.11111111  0.11111111  0.00000000  0.0027
       8  0.22222222  0.11111111  0.00000000  0.0027
       9  0.33333333  0.11111111  0.00000000  0.0027
      10  0.44444444  0.11111111  0.00000000  0.0027
      11  0.44444444 -0.11111111  0.00000000  0.0027
      12  0.33333333 -0.11111111  0.00000000  0.0027
      13  0.22222222 -0.11111111  0.00000000  0.0027
      14 -0.11111111  0.11111111  0.00000000  0.0027
      15  0.00000000  0.22222222  0.00000000  0.0027
      16  0.11111111  0.22222222  0.00000000  0.0027
      17  0.22222222  0.22222222  0.00000000  0.0027
      18  0.33333333  0.22222222  0.00000000  0.0027
      19  0.44444444  0.22222222  0.00000000  0.0027
      20  0.44444444 -0.22222222  0.00000000  0.0027
      21  0.33333333 -0.22222222  0.00000000  0.0027
      22 -0.22222222  0.22222222  0.00000000  0.0027
      23 -0.11111111  0.22222222  0.00000000  0.0027
      24  0.00000000  0.33333333  0.00000000  0.0027
      25  0.11111111  0.33333333  0.00000000  0.0027
      26  0.22222222  0.33333333  0.00000000  0.0027
      27  0.33333333  0.33333333  0.00000000  0.0027
      28  0.44444444  0.33333333  0.00000000  0.0027
      29  0.44444444 -0.33333333  0.00000000  0.0027
      30 -0.33333333  0.33333333  0.00000000  0.0027
      31 -0.22222222  0.33333333  0.00000000  0.0027
      32 -0.11111111  0.33333333  0.00000000  0.0027
      33  0.00000000  0.44444444  0.00000000  0.0027
      34  0.11111111  0.44444444  0.00000000  0.0027
      35  0.22222222  0.44444444  0.00000000  0.0027
      36  0.33333333  0.44444444  0.00000000  0.0027
      37  0.44444444  0.44444444  0.00000000  0.0027
      38 -0.44444444  0.44444444  0.00000000  0.0027
      39 -0.33333333  0.44444444  0.00000000  0.0027
      40 -0.22222222  0.44444444  0.00000000  0.0027
      41 -0.11111111  0.44444444  0.00000000  0.0027
      42  0.00000000  0.00000000  0.11111111  0.0027
      43  0.11111111  0.00000000  0.11111111  0.0055
      44  0.22222222  0.00000000  0.11111111  0.0055
      45  0.33333333  0.00000000  0.11111111  0.0055
      46  0.44444444  0.00000000  0.11111111  0.0055
      47  0.00000000  0.11111111  0.11111111  0.0055
      48  0.11111111  0.11111111  0.11111111  0.0055
      49  0.22222222  0.11111111  0.11111111  0.0055
      50  0.33333333  0.11111111  0.11111111  0.0055
      51  0.44444444  0.11111111  0.11111111  0.0055
      52  0.44444444 -0.11111111  0.11111111  0.0055
      53  0.33333333 -0.11111111  0.11111111  0.0055
      54  0.22222222 -0.11111111  0.11111111  0.0055
      55 -0.11111111  0.11111111  0.11111111  0.0055
      56  0.00000000  0.22222222  0.11111111  0.0055
      57  0.11111111  0.22222222  0.11111111  0.0055
      58  0.22222222  0.22222222  0.11111111  0.0055
      59  0.33333333  0.22222222  0.11111111  0.0055
      60  0.44444444  0.22222222  0.11111111  0.0055
      61  0.44444444 -0.22222222  0.11111111  0.0055
      62  0.33333333 -0.22222222  0.11111111  0.0055
      63 -0.22222222  0.22222222  0.11111111  0.0055
      64 -0.11111111  0.22222222  0.11111111  0.0055
      65  0.00000000  0.33333333  0.11111111  0.0055
      66  0.11111111  0.33333333  0.11111111  0.0055
      67  0.22222222  0.33333333  0.11111111  0.0055
      68  0.33333333  0.33333333  0.11111111  0.0055
      69  0.44444444  0.33333333  0.11111111  0.0055
      70  0.44444444 -0.33333333  0.11111111  0.0055
      71 -0.33333333  0.33333333  0.11111111  0.0055
      72 -0.22222222  0.33333333  0.11111111  0.0055
      73 -0.11111111  0.33333333  0.11111111  0.0055
      74  0.00000000  0.44444444  0.11111111  0.0055
      75  0.11111111  0.44444444  0.11111111  0.0055
      76  0.22222222  0.44444444  0.11111111  0.0055
      77  0.33333333  0.44444444  0.11111111  0.0055
      78  0.44444444  0.44444444  0.11111111  0.0055
      79 -0.44444444  0.44444444  0.11111111  0.0055
      80 -0.33333333  0.44444444  0.11111111  0.0055
      81 -0.22222222  0.44444444  0.11111111  0.0055
      82 -0.11111111  0.44444444  0.11111111  0.0055
      83  0.00000000  0.00000000  0.22222222  0.0027
      84  0.11111111  0.00000000  0.22222222  0.0055
      85  0.22222222  0.00000000  0.22222222  0.0055
      86  0.33333333  0.00000000  0.22222222  0.0055
      87  0.44444444  0.00000000  0.22222222  0.0055
      88  0.00000000  0.11111111  0.22222222  0.0055
      89  0.11111111  0.11111111  0.22222222  0.0055
      90  0.22222222  0.11111111  0.22222222  0.0055
      91  0.33333333  0.11111111  0.22222222  0.0055
      92  0.44444444  0.11111111  0.22222222  0.0055
      93  0.44444444 -0.11111111  0.22222222  0.0055
      94  0.33333333 -0.11111111  0.22222222  0.0055
      95  0.22222222 -0.11111111  0.22222222  0.0055
      96 -0.11111111  0.11111111  0.22222222  0.0055
      97  0.00000000  0.22222222  0.22222222  0.0055
      98  0.11111111  0.22222222  0.22222222  0.0055
      99  0.22222222  0.22222222  0.22222222  0.0055
     100  0.33333333  0.22222222  0.22222222  0.0055
     101  0.44444444  0.22222222  0.22222222  0.0055
     102  0.44444444 -0.22222222  0.22222222  0.0055
     103  0.33333333 -0.22222222  0.22222222  0.0055
     104 -0.22222222  0.22222222  0.22222222  0.0055
     105 -0.11111111  0.22222222  0.22222222  0.0055
     106  0.00000000  0.33333333  0.22222222  0.0055
     107  0.11111111  0.33333333  0.22222222  0.0055
     108  0.22222222  0.33333333  0.22222222  0.0055
     109  0.33333333  0.33333333  0.22222222  0.0055
     110  0.44444444  0.33333333  0.22222222  0.0055
     111  0.44444444 -0.33333333  0.22222222  0.0055
     112 -0.33333333  0.33333333  0.22222222  0.0055
     113 -0.22222222  0.33333333  0.22222222  0.0055
     114 -0.11111111  0.33333333  0.22222222  0.0055
     115  0.00000000  0.44444444  0.22222222  0.0055
     116  0.11111111  0.44444444  0.22222222  0.0055
     117  0.22222222  0.44444444  0.22222222  0.0055
     118  0.33333333  0.44444444  0.22222222  0.0055
     119  0.44444444  0.44444444  0.22222222  0.0055
     120 -0.44444444  0.44444444  0.22222222  0.0055
     121 -0.33333333  0.44444444  0.22222222  0.0055
     122 -0.22222222  0.44444444  0.22222222  0.0055
     123 -0.11111111  0.44444444  0.22222222  0.0055
     124  0.00000000  0.00000000  0.33333333  0.0027
     125  0.11111111  0.00000000  0.33333333  0.0055
     126  0.22222222  0.00000000  0.33333333  0.0055
     127  0.33333333  0.00000000  0.33333333  0.0055
     128  0.44444444  0.00000000  0.33333333  0.0055
     129  0.00000000  0.11111111  0.33333333  0.0055
     130  0.11111111  0.11111111  0.33333333  0.0055
     131  0.22222222  0.11111111  0.33333333  0.0055
     132  0.33333333  0.11111111  0.33333333  0.0055
     133  0.44444444  0.11111111  0.33333333  0.0055
     134  0.44444444 -0.11111111  0.33333333  0.0055
     135  0.33333333 -0.11111111  0.33333333  0.0055
     136  0.22222222 -0.11111111  0.33333333  0.0055
     137 -0.11111111  0.11111111  0.33333333  0.0055
     138  0.00000000  0.22222222  0.33333333  0.0055
     139  0.11111111  0.22222222  0.33333333  0.0055
     140  0.22222222  0.22222222  0.33333333  0.0055
     141  0.33333333  0.22222222  0.33333333  0.0055
     142  0.44444444  0.22222222  0.33333333  0.0055
     143  0.44444444 -0.22222222  0.33333333  0.0055
     144  0.33333333 -0.22222222  0.33333333  0.0055
     145 -0.22222222  0.22222222  0.33333333  0.0055
     146 -0.11111111  0.22222222  0.33333333  0.0055
     147  0.00000000  0.33333333  0.33333333  0.0055
     148  0.11111111  0.33333333  0.33333333  0.0055
     149  0.22222222  0.33333333  0.33333333  0.0055
     150  0.33333333  0.33333333  0.33333333  0.0055
     151  0.44444444  0.33333333  0.33333333  0.0055
     152  0.44444444 -0.33333333  0.33333333  0.0055
     153 -0.33333333  0.33333333  0.33333333  0.0055
     154 -0.22222222  0.33333333  0.33333333  0.0055
     155 -0.11111111  0.33333333  0.33333333  0.0055
     156  0.00000000  0.44444444  0.33333333  0.0055
     157  0.11111111  0.44444444  0.33333333  0.0055
     158  0.22222222  0.44444444  0.33333333  0.0055
     159  0.33333333  0.44444444  0.33333333  0.0055
     160  0.44444444  0.44444444  0.33333333  0.0055
     161 -0.44444444  0.44444444  0.33333333  0.0055
     162 -0.33333333  0.44444444  0.33333333  0.0055
     163 -0.22222222  0.44444444  0.33333333  0.0055
     164 -0.11111111  0.44444444  0.33333333  0.0055
     165  0.00000000  0.00000000  0.44444444  0.0027
     166  0.11111111  0.00000000  0.44444444  0.0055
     167  0.22222222  0.00000000  0.44444444  0.0055
     168  0.33333333  0.00000000  0.44444444  0.0055
     169  0.44444444  0.00000000  0.44444444  0.0055
     170  0.00000000  0.11111111  0.44444444  0.0055
     171  0.11111111  0.11111111  0.44444444  0.0055
     172  0.22222222  0.11111111  0.44444444  0.0055
     173  0.33333333  0.11111111  0.44444444  0.0055
     174  0.44444444  0.11111111  0.44444444  0.0055
     175  0.44444444 -0.11111111  0.44444444  0.0055
     176  0.33333333 -0.11111111  0.44444444  0.0055
     177  0.22222222 -0.11111111  0.44444444  0.0055
     178 -0.11111111  0.11111111  0.44444444  0.0055
     179  0.00000000  0.22222222  0.44444444  0.0055
     180  0.11111111  0.22222222  0.44444444  0.0055
     181  0.22222222  0.22222222  0.44444444  0.0055
     182  0.33333333  0.22222222  0.44444444  0.0055
     183  0.44444444  0.22222222  0.44444444  0.0055
     184  0.44444444 -0.22222222  0.44444444  0.0055
     185  0.33333333 -0.22222222  0.44444444  0.0055
     186 -0.22222222  0.22222222  0.44444444  0.0055
     187 -0.11111111  0.22222222  0.44444444  0.0055
     188  0.00000000  0.33333333  0.44444444  0.0055
     189  0.11111111  0.33333333  0.44444444  0.0055
     190  0.22222222  0.33333333  0.44444444  0.0055
     191  0.33333333  0.33333333  0.44444444  0.0055
     192  0.44444444  0.33333333  0.44444444  0.0055
     193  0.44444444 -0.33333333  0.44444444  0.0055
     194 -0.33333333  0.33333333  0.44444444  0.0055
     195 -0.22222222  0.33333333  0.44444444  0.0055
     196 -0.11111111  0.33333333  0.44444444  0.0055
     197  0.00000000  0.44444444  0.44444444  0.0055
     198  0.11111111  0.44444444  0.44444444  0.0055
     199  0.22222222  0.44444444  0.44444444  0.0055
     200  0.33333333  0.44444444  0.44444444  0.0055
     201  0.44444444  0.44444444  0.44444444  0.0055
     202 -0.44444444  0.44444444  0.44444444  0.0055
     203 -0.33333333  0.44444444  0.44444444  0.0055
     204 -0.22222222  0.44444444  0.44444444  0.0055
     205 -0.11111111  0.44444444  0.44444444  0.0055

                                   nkstot = 729                                                            ibzkpt
K-POINTS REDUCTION ACCORDING TO SYMMETRY
     KPT    DIRECT_X    DIRECT_Y    DIRECT_Z     IBZ    DIRECT_X    DIRECT_Y    DIRECT_Z
       1  0.00000000  0.00000000  0.00000000       1  0.00000000  0.00000000  0.00000000
       2  0.11111111  0.00000000  0.00000000       2  0.11111111  0.00000000  0.00000000
       3  0.22222222  0.00000000  0.00000000       3  0.22222222  0.00000000  0.00000000
       4  0.33333333  0.00000000  0.00000000       4  0.33333333  0.00000000  0.00000000
       5  0.44444444  0.00000000  0.00000000       5  0.44444444  0.00000000  0.00000000
       6 -0.44444444  0.00000000  0.00000000       5  0.44444444  0.00000000  0.00000000
       7 -0.33333333  0.00000000  0.00000000       4  0.33333333  0.00000000  0.00000000
       8 -0.22222222  0.00000000  0.00000000       3  0.22222222  0.00000000  0.00000000
       9 -0.11111111  0.00000000  0.00000000       2  0.11111111  0.00000000  0.00000000
      10  0.00000000  0.11111111  0.00000000       6  0.00000000  0.11111111  0.00000000
      11  0.11111111  0.11111111  0.00000000       7  0.11111111  0.11111111  0.00000000
      12  0.22222222  0.11111111  0.00000000       8  0.22222222  0.11111111  0.00000000
      13  0.33333333  0.11111111  0.00000000       9  0.33333333  0.11111111  0.00000000
      14  0.44444444  0.11111111  0.00000000      10  0.44444444  0.11111111  0.00000000
      15 -0.44444444  0.11111111  0.00000000      11  0.44444444 -0.11111111  0.00000000
      16 -0.33333333  0.11111111  0.00000000      12  0.33333333 -0.11111111  0.00000000
      17 -0.22222222  0.11111111  0.00000000      13  0.22222222 -0.11111111  0.00000000
      18 -0.11111111  0.11111111  0.00000000      14 -0.11111111  0.11111111  0.00000000
      19  0.00000000  0.22222222  0.00000000      15  0.00000000  0.22222222  0.00000000
      20  0.11111111  0.22222222  0.00000000      16  0.11111111  0.22222222  0.00000000
      21  0.22222222  0.22222222  0.00000000      17  0.22222222  0.22222222  0.00000000
      22  0.33333333  0.22222222  0.00000000      18  0.33333333  0.22222222  0.00000000
      23  0.44444444  0.22222222  0.00000000      19  0.44444444  0.22222222  0.00000000
      24 -0.44444444  0.22222222  0.00000000      20  0.44444444 -0.22222222  0.00000000
      25 -0.33333333  0.22222222  0.00000000      21  0.33333333 -0.22222222  0.00000000
      26 -0.22222222  0.22222222  0.00000000      22 -0.22222222  0.22222222  0.00000000
      27 -0.11111111  0.22222222  0.00000000      23 -0.11111111  0.22222222  0.00000000
      28  0.00000000  0.33333333  0.00000000      24  0.00000000  0.33333333  0.00000000
      29  0.11111111  0.33333333  0.00000000      25  0.11111111  0.33333333  0.00000000
      30  0.22222222  0.33333333  0.00000000      26  0.22222222  0.33333333  0.00000000
      31  0.33333333  0.33333333  0.00000000      27  0.33333333  0.33333333  0.00000000
      32  0.44444444  0.33333333  0.00000000      28  0.44444444  0.33333333  0.00000000
      33 -0.44444444  0.33333333  0.00000000      29  0.44444444 -0.33333333  0.00000000
      34 -0.33333333  0.33333333  0.00000000      30 -0.33333333  0.33333333  0.00000000
      35 -0.22222222  0.33333333  0.00000000      31 -0.22222222  0.33333333  0.00000000
      36 -0.11111111  0.33333333  0.00000000      32 -0.11111111  0.33333333  0.00000000
      37  0.00000000  0.44444444  0.00000000      33  0.00000000  0.44444444  0.00000000
      38  0.11111111  0.44444444  0.00000000      34  0.11111111  0.44444444  0.00000000
      39  0.22222222  0.44444444  0.00000000      35  0.22222222  0.44444444  0.00000000
      40  0.33333333  0.44444444  0.00000000      36  0.33333333  0.44444444  0.00000000
      41  0.44444444  0.44444444  0.00000000      37  0.44444444  0.44444444  0.00000000
      42 -0.44444444  0.44444444  0.00000000      38 -0.44444444  0.44444444  0.00000000
      43 -0.33333333  0.44444444  0.00000000      39 -0.33333333  0.44444444  0.00000000
      44 -0.22222222  0.44444444  0.00000000      40 -0.22222222  0.44444444  0.00000000
      45 -0.11111111  0.44444444  0.00000000      41 -0.11111111  0.44444444  0.00000000
      46  0.00000000 -0.44444444  0.00000000      33  0.00000000  0.44444444  0.00000000
      47  0.11111111 -0.44444444  0.00000000      41 -0.11111111  0.44444444  0.00000000
      48  0.22222222 -0.44444444  0.00000000      40 -0.22222222  0.44444444  0.00000000
      49  0.33333333 -0.44444444  0.00000000      39 -0.33333333  0.44444444  0.00000000
      50  0.44444444 -0.44444444  0.00000000      38 -0.44444444  0.44444444  0.00000000
      51 -0.44444444 -0.44444444  0.00000000      37  0.44444444  0.44444444  0.00000000
      52 -0.33333333 -0.44444444  0.00000000      36  0.33333333  0.44444444  0.00000000
      53 -0.22222222 -0.44444444  0.00000000      35  0.22222222  0.44444444  0.00000000
      54 -0.11111111 -0.44444444  0.00000000      34  0.11111111  0.44444444  0.00000000
      55  0.00000000 -0.33333333  0.00000000      24  0.00000000  0.33333333  0.00000000
      56  0.11111111 -0.33333333  0.00000000      32 -0.11111111  0.33333333  0.00000000
      57  0.22222222 -0.33333333  0.00000000      31 -0.22222222  0.33333333  0.00000000
      58  0.33333333 -0.33333333  0.00000000      30 -0.33333333  0.33333333  0.00000000
      59  0.44444444 -0.33333333  0.00000000      29  0.44444444 -0.33333333  0.00000000
      60 -0.44444444 -0.33333333  0.00000000      28  0.44444444  0.33333333  0.00000000
      61 -0.33333333 -0.33333333  0.00000000      27  0.33333333  0.33333333  0.00000000
      62 -0.22222222 -0.33333333  0.00000000      26  0.22222222  0.33333333  0.00000000
      63 -0.11111111 -0.33333333  0.00000000      25  0.11111111  0.33333333  0.00000000
      64  0.00000000 -0.22222222  0.00000000      15  0.00000000  0.22222222  0.00000000
      65  0.11111111 -0.22222222  0.00000000      23 -0.11111111  0.22222222  0.00000000
      66  0.22222222 -0.22222222  0.00000000      22 -0.22222222  0.22222222  0.00000000
      67  0.33333333 -0.22222222  0.00000000      21  0.33333333 -0.22222222  0.00000000
      68  0.44444444 -0.22222222  0.00000000      20  0.44444444 -0.22222222  0.00000000
      69 -0.44444444 -0.22222222  0.00000000      19  0.44444444  0.22222222  0.00000000
      70 -0.33333333 -0.22222222  0.00000000      18  0.33333333  0.22222222  0.00000000
      71 -0.22222222 -0.22222222  0.00000000      17  0.22222222  0.22222222  0.00000000
      72 -0.11111111 -0.22222222  0.00000000      16  0.11111111  0.22222222  0.00000000
      73  0.00000000 -0.11111111  0.00000000       6  0.00000000  0.11111111  0.00000000
      74  0.11111111 -0.11111111  0.00000000      14 -0.11111111  0.11111111  0.00000000
      75  0.22222222 -0.11111111  0.00000000      13  0.22222222 -0.11111111  0.00000000
      76  0.33333333 -0.11111111  0.00000000      12  0.33333333 -0.11111111  0.00000000
      77  0.44444444 -0.11111111  0.00000000      11  0.44444444 -0.11111111  0.00000000
      78 -0.44444444 -0.11111111  0.00000000      10  0.44444444  0.11111111  0.00000000
      79 -0.33333333 -0.11111111  0.00000000       9  0.33333333  0.11111111  0.00000000
      80 -0.22222222 -0.11111111  0.00000000       8  0.22222222  0.11111111  0.00000000
      81 -0.11111111 -0.11111111  0.00000000       7  0.11111111  0.11111111  0.00000000
      82  0.00000000  0.00000000  0.11111111      42  0.00000000  0.00000000  0.11111111
      83  0.11111111  0.00000000  0.11111111      43  0.11111111  0.00000000  0.11111111
      84  0.22222222  0.00000000  0.11111111      44  0.22222222  0.00000000  0.11111111
      85  0.33333333  0.00000000  0.11111111      45  0.33333333  0.00000000  0.11111111
      86  0.44444444  0.00000000  0.11111111      46  0.44444444  0.00000000  0.11111111
      87 -0.44444444  0.00000000  0.11111111      46  0.44444444  0.00000000  0.11111111
      88 -0.33333333  0.00000000  0.11111111      45  0.33333333  0.00000000  0.11111111
      89 -0.22222222  0.00000000  0.11111111      44  0.22222222  0.00000000  0.11111111
      90 -0.11111111  0.00000000  0.11111111      43  0.11111111  0.00000000  0.11111111
      91  0.00000000  0.11111111  0.11111111      47  0.00000000  0.11111111  0.11111111
      92  0.11111111  0.11111111  0.11111111      48  0.11111111  0.11111111  0.11111111
      93  0.22222222  0.11111111  0.11111111      49  0.22222222  0.11111111  0.11111111
      94  0.33333333  0.11111111  0.11111111      50  0.33333333  0.11111111  0.11111111
      95  0.44444444  0.11111111  0.11111111      51  0.44444444  0.11111111  0.11111111
      96 -0.44444444  0.11111111  0.11111111      52  0.44444444 -0.11111111  0.11111111
      97 -0.33333333  0.11111111  0.11111111      53  0.33333333 -0.11111111  0.11111111
      98 -0.22222222  0.11111111  0.11111111      54  0.22222222 -0.11111111  0.11111111
      99 -0.11111111  0.11111111  0.11111111      55 -0.11111111  0.11111111  0.11111111
     100  0.00000000  0.22222222  0.11111111      56  0.00000000  0.22222222  0.11111111
     101  0.11111111  0.22222222  0.11111111      57  0.11111111  0.22222222  0.11111111
     102  0.22222222  0.22222222  0.11111111      58  0.22222222  0.22222222  0.11111111
     103  0.33333333  0.22222222  0.11111111      59  0.33333333  0.22222222  0.11111111
     104  0.44444444  0.22222222  0.11111111      60  0.44444444  0.22222222  0.11111111
     105 -0.44444444  0.22222222  0.11111111      61  0.44444444 -0.22222222  0.11111111
     106 -0.33333333  0.22222222  0.11111111      62  0.33333333 -0.22222222  0.11111111
     107 -0.22222222  0.22222222  0.11111111      63 -0.22222222  0.22222222  0.11111111
     108 -0.11111111  0.22222222  0.11111111      64 -0.11111111  0.22222222  0.11111111
     109  0.00000000  0.33333333  0.11111111      65  0.00000000  0.33333333  0.11111111
     110  0.11111111  0.33333333  0.11111111      66  0.11111111  0.33333333  0.11111111
     111  0.22222222  0.33333333  0.11111111      67  0.22222222  0.33333333  0.11111111
     112  0.33333333  0.33333333  0.11111111      68  0.33333333  0.33333333  0.11111111
     113  0.44444444  0.33333333  0.11111111      69  0.44444444  0.33333333  0.11111111
     114 -0.44444444  0.33333333  0.11111111      70  0.44444444 -0.33333333  0.11111111
     115 -0.33333333  0.33333333  0.11111111      71 -0.33333333  0.33333333  0.11111111
     116 -0.22222222  0.33333333  0.11111111      72 -0.22222222  0.33333333  0.11111111
     117 -0.11111111  0.33333333  0.11111111      73 -0.11111111  0.33333333  0.11111111
     118  0.00000000  0.44444444  0.11111111      74  0.00000000  0.44444444  0.11111111
     119  0.11111111  0.44444444  0.11111111      75  0.11111111  0.44444444  0.11111111
     120  0.22222222  0.44444444  0.11111111      76  0.22222222  0.44444444  0.11111111
     121  0.33333333  0.44444444  0.11111111      77  0.33333333  0.44444444  0.11111111
     122  0.44444444  0.44444444  0.11111111      78  0.44444444  0.44444444  0.11111111
     123 -0.44444444  0.44444444  0.11111111      79 -0.44444444  0.44444444  0.11111111
     124 -0.33333333  0.44444444  0.11111111      80 -0.33333333  0.44444444  0.11111111
     125 -0.22222222  0.44444444  0.11111111      81 -0.22222222  0.44444444  0.11111111
     126 -0.11111111  0.44444444  0.11111111      82 -0.11111111  0.44444444  0.11111111
     127  0.00000000 -0.44444444  0.11111111      74  0.00000000  0.44444444  0.11111111
     128  0.11111111 -0.44444444  0.11111111      82 -0.11111111  0.44444444  0.11111111
     129  0.22222222 -0.44444444  0.11111111      81 -0.22222222  0.44444444  0.11111111
     130  0.33333333 -0.44444444  0.11111111      80 -0.33333333  0.44444444  0.11111111
     131  0.44444444 -0.44444444  0.11111111      79 -0.44444444  0.44444444  0.11111111
     132 -0.44444444 -0.44444444  0.11111111      78  0.44444444  0.44444444  0.11111111
     133 -0.33333333 -0.44444444  0.11111111      77  0.33333333  0.44444444  0.11111111
     134 -0.22222222 -0.44444444  0.11111111      76  0.22222222  0.44444444  0.11111111
     135 -0.11111111 -0.44444444  0.11111111      75  0.11111111  0.44444444  0.11111111
     136  0.00000000 -0.33333333  0.11111111      65  0.00000000  0.33333333  0.11111111
     137  0.11111111 -0.33333333  0.11111111      73 -0.11111111  0.33333333  0.11111111
     138  0.22222222 -0.33333333  0.11111111      72 -0.22222222  0.33333333  0.11111111
     139  0.33333333 -0.33333333  0.11111111      71 -0.33333333  0.33333333  0.11111111
     140  0.44444444 -0.33333333  0.11111111      70  0.44444444 -0.33333333  0.11111111
     141 -0.44444444 -0.33333333  0.11111111      69  0.44444444  0.33333333  0.11111111
     142 -0.33333333 -0.33333333  0.11111111      68  0.33333333  0.33333333  0.11111111
     143 -0.22222222 -0.33333333  0.11111111      67  0.22222222  0.33333333  0.11111111
     144 -0.11111111 -0.33333333  0.11111111      66  0.11111111  0.33333333  0.11111111
     145  0.00000000 -0.22222222  0.11111111      56  0.00000000  0.22222222  0.11111111
     146  0.11111111 -0.22222222  0.11111111      64 -0.11111111  0.22222222  0.11111111
     147  0.22222222 -0.22222222  0.11111111      63 -0.22222222  0.22222222  0.11111111
     148  0.33333333 -0.22222222  0.11111111      62  0.33333333 -0.22222222  0.11111111
     149  0.44444444 -0.22222222  0.11111111      61  0.44444444 -0.22222222  0.11111111
     150 -0.44444444 -0.22222222  0.11111111      60  0.44444444  0.22222222  0.11111111
     151 -0.33333333 -0.22222222  0.11111111      59  0.33333333  0.22222222  0.11111111
     152 -0.22222222 -0.22222222  0.11111111      58  0.22222222  0.22222222  0.11111111
     153 -0.11111111 -0.22222222  0.11111111      57  0.11111111  0.22222222  0.11111111
     154  0.00000000 -0.11111111  0.11111111      47  0.00000000  0.11111111  0.11111111
     155  0.11111111 -0.11111111  0.11111111      55 -0.11111111  0.11111111  0.11111111
     156  0.22222222 -0.11111111  0.11111111      54  0.22222222 -0.11111111  0.11111111
     157  0.33333333 -0.11111111  0.11111111      53  0.33333333 -0.11111111  0.11111111
     158  0.44444444 -0.11111111  0.11111111      52  0.44444444 -0.11111111  0.11111111
     159 -0.44444444 -0.11111111  0.11111111      51  0.44444444  0.11111111  0.11111111
     160 -0.33333333 -0.11111111  0.11111111      50  0.33333333  0.11111111  0.11111111
     161 -0.22222222 -0.11111111  0.11111111      49  0.22222222  0.11111111  0.11111111
     162 -0.11111111 -0.11111111  0.11111111      48  0.11111111  0.11111111  0.11111111
     163  0.00000000  0.00000000  0.22222222      83  0.00000000  0.00000000  0.22222222
     164  0.11111111  0.00000000  0.22222222      84  0.11111111  0.00000000  0.22222222
     165  0.22222222  0.00000000  0.22222222      85  0.22222222  0.00000000  0.22222222
     166  0.33333333  0.00000000  0.22222222      86  0.33333333  0.00000000  0.22222222
     167  0.44444444  0.00000000  0.22222222      87  0.44444444  0.00000000  0.22222222
     168 -0.44444444  0.00000000  0.22222222      87  0.44444444  0.00000000  0.22222222
     169 -0.33333333  0.00000000  0.22222222      86  0.33333333  0.00000000  0.22222222
     170 -0.22222222  0.00000000  0.22222222      85  0.22222222  0.00000000  0.22222222
     171 -0.11111111  0.00000000  0.22222222      84  0.11111111  0.00000000  0.22222222
     172  0.00000000  0.11111111  0.22222222      88  0.00000000  0.11111111  0.22222222
     173  0.11111111  0.11111111  0.22222222      89  0.11111111  0.11111111  0.22222222
     174  0.22222222  0.11111111  0.22222222      90  0.22222222  0.11111111  0.22222222
     175  0.33333333  0.11111111  0.22222222      91  0.33333333  0.11111111  0.22222222
     176  0.44444444  0.11111111  0.22222222      92  0.44444444  0.11111111  0.22222222
     177 -0.44444444  0.11111111  0.22222222      93  0.44444444 -0.11111111  0.22222222
     178 -0.33333333  0.11111111  0.22222222      94  0.33333333 -0.11111111  0.22222222
     179 -0.22222222  0.11111111  0.22222222      95  0.22222222 -0.11111111  0.22222222
     180 -0.11111111  0.11111111  0.22222222      96 -0.11111111  0.11111111  0.22222222
     181  0.00000000  0.22222222  0.22222222      97  0.00000000  0.22222222  0.22222222
     182  0.11111111  0.22222222  0.22222222      98  0.11111111  0.22222222  0.22222222
     183  0.22222222  0.22222222  0.22222222      99  0.22222222  0.22222222  0.22222222
     184  0.33333333  0.22222222  0.22222222     100  0.33333333  0.22222222  0.22222222
     185  0.44444444  0.22222222  0.22222222     101  0.44444444  0.22222222  0.22222222
     186 -0.44444444  0.22222222  0.22222222     102  0.44444444 -0.22222222  0.22222222
     187 -0.33333333  0.22222222  0.22222222     103  0.33333333 -0.22222222  0.22222222
     188 -0.22222222  0.22222222  0.22222222     104 -0.22222222  0.22222222  0.22222222
     189 -0.11111111  0.22222222  0.22222222     105 -0.11111111  0.22222222  0.22222222
     190  0.00000000  0.33333333  0.22222222     106  0.00000000  0.33333333  0.22222222
     191  0.11111111  0.33333333  0.22222222     107  0.11111111  0.33333333  0.22222222
     192  0.22222222  0.33333333  0.22222222     108  0.22222222  0.33333333  0.22222222
     193  0.33333333  0.33333333  0.22222222     109  0.33333333  0.33333333  0.22222222
     194  0.44444444  0.33333333  0.22222222     110  0.44444444  0.33333333  0.22222222
     195 -0.44444444  0.33333333  0.22222222     111  0.44444444 -0.33333333  0.22222222
     196 -0.33333333  0.33333333  0.22222222     112 -0.33333333  0.33333333  0.22222222
     197 -0.22222222  0.33333333  0.22222222     113 -0.22222222  0.33333333  0.22222222
     198 -0.11111111  0.33333333  0.22222222     114 -0.11111111  0.33333333  0.22222222
     199  0.00000000  0.44444444  0.22222222     115  0.00000000  0.44444444  0.22222222
     200  0.11111111  0.44444444  0.22222222     116  0.11111111  0.44444444  0.22222222
     201  0.22222222  0.44444444  0.22222222     117  0.22222222  0.44444444  0.22222222
     202  0.33333333  0.44444444  0.22222222     118  0.33333333  0.44444444  0.22222222
     203  0.44444444  0.44444444  0.22222222     119  0.44444444  0.44444444  0.22222222
     204 -0.44444444  0.44444444  0.22222222     120 -0.44444444  0.44444444  0.22222222
     205 -0.33333333  0.44444444  0.22222222     121 -0.33333333  0.44444444  0.22222222
     206 -0.22222222  0.44444444  0.22222222     122 -0.22222222  0.44444444  0.22222222
     207 -0.11111111  0.44444444  0.22222222     123 -0.11111111  0.44444444  0.22222222
     208  0.00000000 -0.44444444  0.22222222     115  0.00000000  0.44444444  0.22222222
     209  0.11111111 -0.44444444  0.22222222     123 -0.11111111  0.44444444  0.22222222
     210  0.22222222 -0.44444444  0.22222222     122 -0.22222222  0.44444444  0.22222222
     211  0.33333333 -0.44444444  0.22222222     121 -0.33333333  0.44444444  0.22222222
     212  0.44444444 -0.44444444  0.22222222     120 -0.44444444  0.44444444  0.22222222
     213 -0.44444444 -0.44444444  0.22222222     119  0.44444444  0.44444444  0.22222222
     214 -0.33333333 -0.44444444  0.22222222     118  0.33333333  0.44444444  0.22222222
     215 -0.22222222 -0.44444444  0.22222222     117  0.22222222  0.44444444  0.22222222
     216 -0.11111111 -0.44444444  0.22222222     116  0.11111111  0.44444444  0.22222222
     217  0.00000000 -0.33333333  0.22222222     106  0.00000000  0.33333333  0.22222222
     218  0.11111111 -0.33333333  0.22222222     114 -0.11111111  0.33333333  0.22222222
     219  0.22222222 -0.33333333  0.22222222     113 -0.22222222  0.33333333  0.22222222
     220  0.33333333 -0.33333333  0.22222222     112 -0.33333333  0.33333333  0.22222222
     221  0.44444444 -0.33333333  0.22222222     111  0.44444444 -0.33333333  0.22222222
     222 -0.44444444 -0.33333333  0.22222222     110  0.44444444  0.33333333  0.22222222
     223 -0.33333333 -0.33333333  0.22222222     109  0.33333333  0.33333333  0.22222222
     224 -0.22222222 -0.33333333  0.22222222     108  0.22222222  0.33333333  0.22222222
     225 -0.11111111 -0.33333333  0.22222222     107  0.11111111  0.33333333  0.22222222
     226  0.00000000 -0.22222222  0.22222222      97  0.00000000  0.22222222  0.22222222
     227  0.11111111 -0.22222222  0.22222222     105 -0.11111111  0.22222222  0.22222222
     228  0.22222222 -0.22222222  0.22222222     104 -0.22222222  0.22222222  0.22222222
     229  0.33333333 -0.22222222  0.22222222     103  0.33333333 -0.22222222  0.22222222
     230  0.44444444 -0.22222222  0.22222222     102  0.44444444 -0.22222222  0.22222222
     231 -0.44444444 -0.22222222  0.22222222     101  0.44444444  0.22222222  0.22222222
     232 -0.33333333 -0.22222222  0.22222222     100  0.33333333  0.22222222  0.22222222
     233 -0.22222222 -0.22222222  0.22222222      99  0.22222222  0.22222222  0.22222222
     234 -0.11111111 -0.22222222  0.22222222      98  0.11111111  0.22222222  0.22222222
     235  0.00000000 -0.11111111  0.22222222      88  0.00000000  0.11111111  0.22222222
     236  0.11111111 -0.11111111  0.22222222      96 -0.11111111  0.11111111  0.22222222
     237  0.22222222 -0.11111111  0.22222222      95  0.22222222 -0.11111111  0.22222222
     238  0.33333333 -0.11111111  0.22222222      94  0.33333333 -0.11111111  0.22222222
     239  0.44444444 -0.11111111  0.22222222      93  0.44444444 -0.11111111  0.22222222
     240 -0.44444444 -0.11111111  0.22222222      92  0.44444444  0.11111111  0.22222222
     241 -0.33333333 -0.11111111  0.22222222      91  0.33333333  0.11111111  0.22222222
     242 -0.22222222 -0.11111111  0.22222222      90  0.22222222  0.11111111  0.22222222
     243 -0.11111111 -0.11111111  0.22222222      89  0.11111111  0.11111111  0.22222222
     244  0.00000000  0.00000000  0.33333333     124  0.00000000  0.00000000  0.33333333
     245  0.11111111  0.00000000  0.33333333     125  0.11111111  0.00000000  0.33333333
     246  0.22222222  0.00000000  0.33333333     126  0.22222222  0.00000000  0.33333333
     247  0.33333333  0.00000000  0.33333333     127  0.33333333  0.00000000  0.33333333
     248  0.44444444  0.00000000  0.33333333     128  0.44444444  0.00000000  0.33333333
     249 -0.44444444  0.00000000  0.33333333     128  0.44444444  0.00000000  0.33333333
     250 -0.33333333  0.00000000  0.33333333     127  0.33333333  0.00000000  0.33333333
     251 -0.22222222  0.00000000  0.33333333     126  0.22222222  0.00000000  0.33333333
     252 -0.11111111  0.00000000  0.33333333     125  0.11111111  0.00000000  0.33333333
     253  0.00000000  0.11111111  0.33333333     129  0.00000000  0.11111111  0.33333333
     254  0.11111111  0.11111111  0.33333333     130  0.11111111  0.11111111  0.33333333
     255  0.22222222  0.11111111  0.33333333     131  0.22222222  0.11111111  0.33333333
     256  0.33333333  0.11111111  0.33333333     132  0.33333333  0.11111111  0.33333333
     257  0.44444444  0.11111111  0.33333333     133  0.44444444  0.11111111  0.33333333
     258 -0.44444444  0.11111111  0.33333333     134  0.44444444 -0.11111111  0.33333333
     259 -0.33333333  0.11111111  0.33333333     135  0.33333333 -0.11111111  0.33333333
     260 -0.22222222  0.11111111  0.33333333     136  0.22222222 -0.11111111  0.33333333
     261 -0.11111111  0.11111111  0.33333333     137 -0.11111111  0.11111111  0.33333333
     262  0.00000000  0.22222222  0.33333333     138  0.00000000  0.22222222  0.33333333
     263  0.11111111  0.22222222  0.33333333     139  0.11111111  0.22222222  0.33333333
     264  0.22222222  0.22222222  0.33333333     140  0.22222222  0.22222222  0.33333333
     265  0.33333333  0.22222222  0.33333333     141  0.33333333  0.22222222  0.33333333
     266  0.44444444  0.22222222  0.33333333     142  0.44444444  0.22222222  0.33333333
     267 -0.44444444  0.22222222  0.33333333     143  0.44444444 -0.22222222  0.33333333
     268 -0.33333333  0.22222222  0.33333333     144  0.33333333 -0.22222222  0.33333333
     269 -0.22222222  0.22222222  0.33333333     145 -0.22222222  0.22222222  0.33333333
     270 -0.11111111  0.22222222  0.33333333     146 -0.11111111  0.22222222  0.33333333
     271  0.00000000  0.33333333  0.33333333     147  0.00000000  0.33333333  0.33333333
     272  0.11111111  0.33333333  0.33333333     148  0.11111111  0.33333333  0.33333333
     273  0.22222222  0.33333333  0.33333333     149  0.22222222  0.33333333  0.33333333
     274  0.33333333  0.33333333  0.33333333     150  0.33333333  0.33333333  0.33333333
     275  0.44444444  0.33333333  0.33333333     151  0.44444444  0.33333333  0.33333333
     276 -0.44444444  0.33333333  0.33333333     152  0.44444444 -0.33333333  0.33333333
     277 -0.33333333  0.33333333  0.33333333     153 -0.33333333  0.33333333  0.33333333
     278 -0.22222222  0.33333333  0.33333333     154 -0.22222222  0.33333333  0.33333333
     279 -0.11111111  0.33333333  0.33333333     155 -0.11111111  0.33333333  0.33333333
     280  0.00000000  0.44444444  0.33333333     156  0.00000000  0.44444444  0.33333333
     281  0.11111111  0.44444444  0.33333333     157  0.11111111  0.44444444  0.33333333
     282  0.22222222  0.44444444  0.33333333     158  0.22222222  0.44444444  0.33333333
     283  0.33333333  0.44444444  0.33333333     159  0.33333333  0.44444444  0.33333333
     284  0.44444444  0.44444444  0.33333333     160  0.44444444  0.44444444  0.33333333
     285 -0.44444444  0.44444444  0.33333333     161 -0.44444444  0.44444444  0.33333333
     286 -0.33333333  0.44444444  0.33333333     162 -0.33333333  0.44444444  0.33333333
     287 -0.22222222  0.44444444  0.33333333     163 -0.22222222  0.44444444  0.33333333
     288 -0.11111111  0.44444444  0.33333333     164 -0.11111111  0.44444444  0.33333333
     289  0.00000000 -0.44444444  0.33333333     156  0.00000000  0.44444444  0.33333333
     290  0.11111111 -0.44444444  0.33333333     164 -0.11111111  0.44444444  0.33333333
     291  0.22222222 -0.44444444  0.33333333     163 -0.22222222  0.44444444  0.33333333
     292  0.33333333 -0.44444444  0.33333333     162 -0.33333333  0.44444444  0.33333333
     293  0.44444444 -0.44444444  0.33333333     161 -0.44444444  0.44444444  0.33333333
     294 -0.44444444 -0.44444444  0.33333333     160  0.44444444  0.44444444  0.33333333
     295 -0.33333333 -0.44444444  0.33333333     159  0.33333333  0.44444444  0.33333333
     296 -0.22222222 -0.44444444  0.33333333     158  0.22222222  0.44444444  0.33333333
     297 -0.11111111 -0.44444444  0.33333333     157  0.11111111  0.44444444  0.33333333
     298  0.00000000 -0.33333333  0.33333333     147  0.00000000  0.33333333  0.33333333
     299  0.11111111 -0.33333333  0.33333333     155 -0.11111111  0.33333333  0.33333333
     300  0.22222222 -0.33333333  0.33333333     154 -0.22222222  0.33333333  0.33333333
     301  0.33333333 -0.33333333  0.33333333     153 -0.33333333  0.33333333  0.33333333
     302  0.44444444 -0.33333333  0.33333333     152  0.44444444 -0.33333333  0.33333333
     303 -0.44444444 -0.33333333  0.33333333     151  0.44444444  0.33333333  0.33333333
     304 -0.33333333 -0.33333333  0.33333333     150  0.33333333  0.33333333  0.33333333
     305 -0.22222222 -0.33333333  0.33333333     149  0.22222222  0.33333333  0.33333333
     306 -0.11111111 -0.33333333  0.33333333     148  0.11111111  0.33333333  0.33333333
     307  0.00000000 -0.22222222  0.33333333     138  0.00000000  0.22222222  0.33333333
     308  0.11111111 -0.22222222  0.33333333     146 -0.11111111  0.22222222  0.33333333
     309  0.22222222 -0.22222222  0.33333333     145 -0.22222222  0.22222222  0.33333333
     310  0.33333333 -0.22222222  0.33333333     144  0.33333333 -0.22222222  0.33333333
     311  0.44444444 -0.22222222  0.33333333     143  0.44444444 -0.22222222  0.33333333
     312 -0.44444444 -0.22222222  0.33333333     142  0.44444444  0.22222222  0.33333333
     313 -0.33333333 -0.22222222  0.33333333     141  0.33333333  0.22222222  0.33333333
     314 -0.22222222 -0.22222222  0.33333333     140  0.22222222  0.22222222  0.33333333
     315 -0.11111111 -0.22222222  0.33333333     139  0.11111111  0.22222222  0.33333333
     316  0.00000000 -0.11111111  0.33333333     129  0.00000000  0.11111111  0.33333333
     317  0.11111111 -0.11111111  0.33333333     137 -0.11111111  0.11111111  0.33333333
     318  0.22222222 -0.11111111  0.33333333     136  0.22222222 -0.11111111  0.33333333
     319  0.33333333 -0.11111111  0.33333333     135  0.33333333 -0.11111111  0.33333333
     320  0.44444444 -0.11111111  0.33333333     134  0.44444444 -0.11111111  0.33333333
     321 -0.44444444 -0.11111111  0.33333333     133  0.44444444  0.11111111  0.33333333
     322 -0.33333333 -0.11111111  0.33333333     132  0.33333333  0.11111111  0.33333333
     323 -0.22222222 -0.11111111  0.33333333     131  0.22222222  0.11111111  0.33333333
     324 -0.11111111 -0.11111111  0.33333333     130  0.11111111  0.11111111  0.33333333
     325  0.00000000  0.00000000  0.44444444     165  0.00000000  0.00000000  0.44444444
     326  0.11111111  0.00000000  0.44444444     166  0.11111111  0.00000000  0.44444444
     327  0.22222222  0.00000000  0.44444444     167  0.22222222  0.00000000  0.44444444
     328  0.33333333  0.00000000  0.44444444     168  0.33333333  0.00000000  0.44444444
     329  0.44444444  0.00000000  0.44444444     169  0.44444444  0.00000000  0.44444444
     330 -0.44444444  0.00000000  0.44444444     169  0.44444444  0.00000000  0.44444444
     331 -0.33333333  0.00000000  0.44444444     168  0.33333333  0.00000000  0.44444444
     332 -0.22222222  0.00000000  0.44444444     167  0.22222222  0.00000000  0.44444444
     333 -0.11111111  0.00000000  0.44444444     166  0.11111111  0.00000000  0.44444444
     334  0.00000000  0.11111111  0.44444444     170  0.00000000  0.11111111  0.44444444
     335  0.11111111  0.11111111  0.44444444     171  0.11111111  0.11111111  0.44444444
     336  0.22222222  0.11111111  0.44444444     172  0.22222222  0.11111111  0.44444444
     337  0.33333333  0.11111111  0.44444444     173  0.33333333  0.11111111  0.44444444
     338  0.44444444  0.11111111  0.44444444     174  0.44444444  0.11111111  0.44444444
     339 -0.44444444  0.11111111  0.44444444     175  0.44444444 -0.11111111  0.44444444
     340 -0.33333333  0.11111111  0.44444444     176  0.33333333 -0.11111111  0.44444444
     341 -0.22222222  0.11111111  0.44444444     177  0.22222222 -0.11111111  0.44444444
     342 -0.11111111  0.11111111  0.44444444     178 -0.11111111  0.11111111  0.44444444
     343  0.00000000  0.22222222  0.44444444     179  0.00000000  0.22222222  0.44444444
     344  0.11111111  0.22222222  0.44444444     180  0.11111111  0.22222222  0.44444444
     345  0.22222222  0.22222222  0.44444444     181  0.22222222  0.22222222  0.44444444
     346  0.33333333  0.22222222  0.44444444     182  0.33333333  0.22222222  0.44444444
     347  0.44444444  0.22222222  0.44444444     183  0.44444444  0.22222222  0.44444444
     348 -0.44444444  0.22222222  0.44444444     184  0.44444444 -0.22222222  0.44444444
     349 -0.33333333  0.22222222  0.44444444     185  0.33333333 -0.22222222  0.44444444
     350 -0.22222222  0.22222222  0.44444444     186 -0.22222222  0.22222222  0.44444444
     351 -0.11111111  0.22222222  0.44444444     187 -0.11111111  0.22222222  0.44444444
     352  0.00000000  0.33333333  0.44444444     188  0.00000000  0.33333333  0.44444444
     353  0.11111111  0.33333333  0.44444444     189  0.11111111  0.33333333  0.44444444
     354  0.22222222  0.33333333  0.44444444     190  0.22222222  0.33333333  0.44444444
     355  0.33333333  0.33333333  0.44444444     191  0.33333333  0.33333333  0.44444444
     356  0.44444444  0.33333333  0.44444444     192  0.44444444  0.33333333  0.44444444
     357 -0.44444444  0.33333333  0.44444444     193  0.44444444 -0.33333333  0.44444444
     358 -0.33333333  0.33333333  0.44444444     194 -0.33333333  0.33333333  0.44444444
     359 -0.22222222  0.33333333  0.44444444     195 -0.22222222  0.33333333  0.44444444
     360 -0.11111111  0.33333333  0.44444444     196 -0.11111111  0.33333333  0.44444444
     361  0.00000000  0.44444444  0.44444444     197  0.00000000  0.44444444  0.44444444
     362  0.11111111  0.44444444  0.44444444     198  0.11111111  0.44444444  0.44444444
     363  0.22222222  0.44444444  0.44444444     199  0.22222222  0.44444444  0.44444444
     364  0.33333333  0.44444444  0.44444444     200  0.33333333  0.44444444  0.44444444
     365  0.44444444  0.44444444  0.44444444     201  0.44444444  0.44444444  0.44444444
     366 -0.44444444  0.44444444  0.44444444     202 -0.44444444  0.44444444  0.44444444
     367 -0.33333333  0.44444444  0.44444444     203 -0.33333333  0.44444444  0.44444444
     368 -0.22222222  0.44444444  0.44444444     204 -0.22222222  0.44444444  0.44444444
     369 -0.11111111  0.44444444  0.44444444     205 -0.11111111  0.44444444  0.44444444
     370  0.00000000 -0.44444444  0.44444444     197  0.00000000  0.44444444  0.44444444
     371  0.11111111 -0.44444444  0.44444444     205 -0.11111111  0.44444444  0.44444444
     372  0.22222222 -0.44444444  0.44444444     204 -0.22222222  0.44444444  0.44444444
     373  0.33333333 -0.44444444  0.44444444     203 -0.33333333  0.44444444  0.44444444
     374  0.44444444 -0.44444444  0.44444444     202 -0.44444444  0.44444444  0.44444444
     375 -0.44444444 -0.44444444  0.44444444     201  0.44444444  0.44444444  0.44444444
     376 -0.33333333 -0.44444444  0.44444444     200  0.33333333  0.44444444  0.44444444
     377 -0.22222222 -0.44444444  0.44444444     199  0.22222222  0.44444444  0.44444444
     378 -0.11111111 -0.44444444  0.44444444     198  0.11111111  0.44444444  0.44444444
     379  0.00000000 -0.33333333  0.44444444     188  0.00000000  0.33333333  0.44444444
     380  0.11111111 -0.33333333  0.44444444     196 -0.11111111  0.33333333  0.44444444
     381  0.22222222 -0.33333333  0.44444444     195 -0.22222222  0.33333333  0.44444444
     382  0.33333333 -0.33333333  0.44444444     194 -0.33333333  0.33333333  0.44444444
     383  0.44444444 -0.33333333  0.44444444     193  0.44444444 -0.33333333  0.44444444
     384 -0.44444444 -0.33333333  0.44444444     192  0.44444444  0.33333333  0.44444444
     385 -0.33333333 -0.33333333  0.44444444     191  0.33333333  0.33333333  0.44444444
     386 -0.22222222 -0.33333333  0.44444444     190  0.22222222  0.33333333  0.44444444
     387 -0.11111111 -0.33333333  0.44444444     189  0.11111111  0.33333333  0.44444444
     388  0.00000000 -0.22222222  0.44444444     179  0.00000000  0.22222222  0.44444444
     389  0.11111111 -0.22222222  0.44444444     187 -0.11111111  0.22222222  0.44444444
     390  0.22222222 -0.22222222  0.44444444     186 -0.22222222  0.22222222  0.44444444
     391  0.33333333 -0.22222222  0.44444444     185  0.33333333 -0.22222222  0.44444444
     392  0.44444444 -0.22222222  0.44444444     184  0.44444444 -0.22222222  0.44444444
     393 -0.44444444 -0.22222222  0.44444444     183  0.44444444  0.22222222  0.44444444
     394 -0.33333333 -0.22222222  0.44444444     182  0.33333333  0.22222222  0.44444444
     395 -0.22222222 -0.22222222  0.44444444     181  0.22222222  0.22222222  0.44444444
     396 -0.11111111 -0.22222222  0.44444444     180  0.11111111  0.22222222  0.44444444
     397  0.00000000 -0.11111111  0.44444444     170  0.00000000  0.11111111  0.44444444
     398  0.11111111 -0.11111111  0.44444444     178 -0.11111111  0.11111111  0.44444444
     399  0.22222222 -0.11111111  0.44444444     177  0.22222222 -0.11111111  0.44444444
     400  0.33333333 -0.11111111  0.44444444     176  0.33333333 -0.11111111  0.44444444
     401  0.44444444 -0.11111111  0.44444444     175  0.44444444 -0.11111111  0.44444444
     402 -0.44444444 -0.11111111  0.44444444     174  0.44444444  0.11111111  0.44444444
     403 -0.33333333 -0.11111111  0.44444444     173  0.33333333  0.11111111  0.44444444
     404 -0.22222222 -0.11111111  0.44444444     172  0.22222222  0.11111111  0.44444444
     405 -0.11111111 -0.11111111  0.44444444     171  0.11111111  0.11111111  0.44444444
     406  0.00000000  0.00000000 -0.44444444     165  0.00000000  0.00000000  0.44444444
     407  0.11111111  0.00000000 -0.44444444     166  0.11111111  0.00000000  0.44444444
     408  0.22222222  0.00000000 -0.44444444     167  0.22222222  0.00000000  0.44444444
     409  0.33333333  0.00000000 -0.44444444     168  0.33333333  0.00000000  0.44444444
     410  0.44444444  0.00000000 -0.44444444     169  0.44444444  0.00000000  0.44444444
     411 -0.44444444  0.00000000 -0.44444444     169  0.44444444  0.00000000  0.44444444
     412 -0.33333333  0.00000000 -0.44444444     168  0.33333333  0.00000000  0.44444444
     413 -0.22222222  0.00000000 -0.44444444     167  0.22222222  0.00000000  0.44444444
     414 -0.11111111  0.00000000 -0.44444444     166  0.11111111  0.00000000  0.44444444
     415  0.00000000  0.11111111 -0.44444444     170  0.00000000  0.11111111  0.44444444
     416  0.11111111  0.11111111 -0.44444444     171  0.11111111  0.11111111  0.44444444
     417  0.22222222  0.11111111 -0.44444444     172  0.22222222  0.11111111  0.44444444
     418  0.33333333  0.11111111 -0.44444444     173  0.33333333  0.11111111  0.44444444
     419  0.44444444  0.11111111 -0.44444444     174  0.44444444  0.11111111  0.44444444
     420 -0.44444444  0.11111111 -0.44444444     175  0.44444444 -0.11111111  0.44444444
     421 -0.33333333  0.11111111 -0.44444444     176  0.33333333 -0.11111111  0.44444444
     422 -0.22222222  0.11111111 -0.44444444     177  0.22222222 -0.11111111  0.44444444
     423 -0.11111111  0.11111111 -0.44444444     178 -0.11111111  0.11111111  0.44444444
     424  0.00000000  0.22222222 -0.44444444     179  0.00000000  0.22222222  0.44444444
     425  0.11111111  0.22222222 -0.44444444     180  0.11111111  0.22222222  0.44444444
     426  0.22222222  0.22222222 -0.44444444     181  0.22222222  0.22222222  0.44444444
     427  0.33333333  0.22222222 -0.44444444     182  0.33333333  0.22222222  0.44444444
     428  0.44444444  0.22222222 -0.44444444     183  0.44444444  0.22222222  0.44444444
     429 -0.44444444  0.22222222 -0.44444444     184  0.44444444 -0.22222222  0.44444444
     430 -0.33333333  0.22222222 -0.44444444     185  0.33333333 -0.22222222  0.44444444
     431 -0.22222222  0.22222222 -0.44444444     186 -0.22222222  0.22222222  0.44444444
     432 -0.11111111  0.22222222 -0.44444444     187 -0.11111111  0.22222222  0.44444444
     433  0.00000000  0.33333333 -0.44444444     188  0.00000000  0.33333333  0.44444444
     434  0.11111111  0.33333333 -0.44444444     189  0.11111111  0.33333333  0.44444444
     435  0.22222222  0.33333333 -0.44444444     190  0.22222222  0.33333333  0.44444444
     436  0.33333333  0.33333333 -0.44444444     191  0.33333333  0.33333333  0.44444444
     437  0.44444444  0.33333333 -0.44444444     192  0.44444444  0.33333333  0.44444444
     438 -0.44444444  0.33333333 -0.44444444     193  0.44444444 -0.33333333  0.44444444
     439 -0.33333333  0.33333333 -0.44444444     194 -0.33333333  0.33333333  0.44444444
     440 -0.22222222  0.33333333 -0.44444444     195 -0.22222222  0.33333333  0.44444444
     441 -0.11111111  0.33333333 -0.44444444     196 -0.11111111  0.33333333  0.44444444
     442  0.00000000  0.44444444 -0.44444444     197  0.00000000  0.44444444  0.44444444
     443  0.11111111  0.44444444 -0.44444444     198  0.11111111  0.44444444  0.44444444
     444  0.22222222  0.44444444 -0.44444444     199  0.22222222  0.44444444  0.44444444
     445  0.33333333  0.44444444 -0.44444444     200  0.33333333  0.44444444  0.44444444
     446  0.44444444  0.44444444 -0.44444444     201  0.44444444  0.44444444  0.44444444
     447 -0.44444444  0.44444444 -0.44444444     202 -0.44444444  0.44444444  0.44444444
     448 -0.33333333  0.44444444 -0.44444444     203 -0.33333333  0.44444444  0.44444444
     449 -0.22222222  0.44444444 -0.44444444     204 -0.22222222  0.44444444  0.44444444
     450 -0.11111111  0.44444444 -0.44444444     205 -0.11111111  0.44444444  0.44444444
     451  0.00000000 -0.44444444 -0.44444444     197  0.00000000  0.44444444  0.44444444
     452  0.11111111 -0.44444444 -0.44444444     205 -0.11111111  0.44444444  0.44444444
     453  0.22222222 -0.44444444 -0.44444444     204 -0.22222222  0.44444444  0.44444444
     454  0.33333333 -0.44444444 -0.44444444     203 -0.33333333  0.44444444  0.44444444
     455  0.44444444 -0.44444444 -0.44444444     202 -0.44444444  0.44444444  0.44444444
     456 -0.44444444 -0.44444444 -0.44444444     201  0.44444444  0.44444444  0.44444444
     457 -0.33333333 -0.44444444 -0.44444444     200  0.33333333  0.44444444  0.44444444
     458 -0.22222222 -0.44444444 -0.44444444     199  0.22222222  0.44444444  0.44444444
     459 -0.11111111 -0.44444444 -0.44444444     198  0.11111111  0.44444444  0.44444444
     460  0.00000000 -0.33333333 -0.44444444     188  0.00000000  0.33333333  0.44444444
     461  0.11111111 -0.33333333 -0.44444444     196 -0.11111111  0.33333333  0.44444444
     462  0.22222222 -0.33333333 -0.44444444     195 -0.22222222  0.33333333  0.44444444
     463  0.33333333 -0.33333333 -0.44444444     194 -0.33333333  0.33333333  0.44444444
     464  0.44444444 -0.33333333 -0.44444444     193  0.44444444 -0.33333333  0.44444444
     465 -0.44444444 -0.33333333 -0.44444444     192  0.44444444  0.33333333  0.44444444
     466 -0.33333333 -0.33333333 -0.44444444     191  0.33333333  0.33333333  0.44444444
     467 -0.22222222 -0.33333333 -0.44444444     190  0.22222222  0.33333333  0.44444444
     468 -0.11111111 -0.33333333 -0.44444444     189  0.11111111  0.33333333  0.44444444
     469  0.00000000 -0.22222222 -0.44444444     179  0.00000000  0.22222222  0.44444444
     470  0.11111111 -0.22222222 -0.44444444     187 -0.11111111  0.22222222  0.44444444
     471  0.22222222 -0.22222222 -0.44444444     186 -0.22222222  0.22222222  0.44444444
     472  0.33333333 -0.22222222 -0.44444444     185  0.33333333 -0.22222222  0.44444444
     473  0.44444444 -0.22222222 -0.44444444     184  0.44444444 -0.22222222  0.44444444
     474 -0.44444444 -0.22222222 -0.44444444     183  0.44444444  0.22222222  0.44444444
     475 -0.33333333 -0.22222222 -0.44444444     182  0.33333333  0.22222222  0.44444444
     476 -0.22222222 -0.22222222 -0.44444444     181  0.22222222  0.22222222  0.44444444
     477 -0.11111111 -0.22222222 -0.44444444     180  0.11111111  0.22222222  0.44444444
     478  0.00000000 -0.11111111 -0.44444444     170  0.00000000  0.11111111  0.44444444
     479  0.11111111 -0.11111111 -0.44444444     178 -0.11111111  0.11111111  0.44444444
     480  0.22222222 -0.11111111 -0.44444444     177  0.22222222 -0.11111111  0.44444444
     481  0.33333333 -0.11111111 -0.44444444     176  0.33333333 -0.11111111  0.44444444
     482  0.44444444 -0.11111111 -0.44444444     175  0.44444444 -0.11111111  0.44444444
     483 -0.44444444 -0.11111111 -0.44444444     174  0.44444444  0.11111111  0.44444444
     484 -0.33333333 -0.11111111 -0.44444444     173  0.33333333  0.11111111  0.44444444
     485 -0.22222222 -0.11111111 -0.44444444     172  0.22222222  0.11111111  0.44444444
     486 -0.11111111 -0.11111111 -0.44444444     171  0.11111111  0.11111111  0.44444444
     487  0.00000000  0.00000000 -0.33333333     124  0.00000000  0.00000000  0.33333333
     488  0.11111111  0.00000000 -0.33333333     125  0.11111111  0.00000000  0.33333333
     489  0.22222222  0.00000000 -0.33333333     126  0.22222222  0.00000000  0.33333333
     490  0.33333333  0.00000000 -0.33333333     127  0.33333333  0.00000000  0.33333333
     491  0.44444444  0.00000000 -0.33333333     128  0.44444444  0.00000000  0.33333333
     492 -0.44444444  0.00000000 -0.33333333     128  0.44444444  0.00000000  0.33333333
     493 -0.33333333  0.00000000 -0.33333333     127  0.33333333  0.00000000  0.33333333
     494 -0.22222222  0.00000000 -0.33333333     126  0.22222222  0.00000000  0.33333333
     495 -0.11111111  0.00000000 -0.33333333     125  0.11111111  0.00000000  0.33333333
     496  0.00000000  0.11111111 -0.33333333     129  0.00000000  0.11111111  0.33333333
     497  0.11111111  0.11111111 -0.33333333     130  0.11111111  0.11111111  0.33333333
     498  0.22222222  0.11111111 -0.33333333     131  0.22222222  0.11111111  0.33333333
     499  0.33333333  0.11111111 -0.33333333     132  0.33333333  0.11111111  0.33333333
     500  0.44444444  0.11111111 -0.33333333     133  0.44444444  0.11111111  0.33333333
     501 -0.44444444  0.11111111 -0.33333333     134  0.44444444 -0.11111111  0.33333333
     502 -0.33333333  0.11111111 -0.33333333     135  0.33333333 -0.11111111  0.33333333
     503 -0.22222222  0.11111111 -0.33333333     136  0.22222222 -0.11111111  0.33333333
     504 -0.11111111  0.11111111 -0.33333333     137 -0.11111111  0.11111111  0.33333333
     505  0.00000000  0.22222222 -0.33333333     138  0.00000000  0.22222222  0.33333333
     506  0.11111111  0.22222222 -0.33333333     139  0.11111111  0.22222222  0.33333333
     507  0.22222222  0.22222222 -0.33333333     140  0.22222222  0.22222222  0.33333333
     508  0.33333333  0.22222222 -0.33333333     141  0.33333333  0.22222222  0.33333333
     509  0.44444444  0.22222222 -0.33333333     142  0.44444444  0.22222222  0.33333333
     510 -0.44444444  0.22222222 -0.33333333     143  0.44444444 -0.22222222  0.33333333
     511 -0.33333333  0.22222222 -0.33333333     144  0.33333333 -0.22222222  0.33333333
     512 -0.22222222  0.22222222 -0.33333333     145 -0.22222222  0.22222222  0.33333333
     513 -0.11111111  0.22222222 -0.33333333     146 -0.11111111  0.22222222  0.33333333
     514  0.00000000  0.33333333 -0.33333333     147  0.00000000  0.33333333  0.33333333
     515  0.11111111  0.33333333 -0.33333333     148  0.11111111  0.33333333  0.33333333
     516  0.22222222  0.33333333 -0.33333333     149  0.22222222  0.33333333  0.33333333
     517  0.33333333  0.33333333 -0.33333333     150  0.33333333  0.33333333  0.33333333
     518  0.44444444  0.33333333 -0.33333333     151  0.44444444  0.33333333  0.33333333
     519 -0.44444444  0.33333333 -0.33333333     152  0.44444444 -0.33333333  0.33333333
     520 -0.33333333  0.33333333 -0.33333333     153 -0.33333333  0.33333333  0.33333333
     521 -0.22222222  0.33333333 -0.33333333     154 -0.22222222  0.33333333  0.33333333
     522 -0.11111111  0.33333333 -0.33333333     155 -0.11111111  0.33333333  0.33333333
     523  0.00000000  0.44444444 -0.33333333     156  0.00000000  0.44444444  0.33333333
     524  0.11111111  0.44444444 -0.33333333     157  0.11111111  0.44444444  0.33333333
     525  0.22222222  0.44444444 -0.33333333     158  0.22222222  0.44444444  0.33333333
     526  0.33333333  0.44444444 -0.33333333     159  0.33333333  0.44444444  0.33333333
     527  0.44444444  0.44444444 -0.33333333     160  0.44444444  0.44444444  0.33333333
     528 -0.44444444  0.44444444 -0.33333333     161 -0.44444444  0.44444444  0.33333333
     529 -0.33333333  0.44444444 -0.33333333     162 -0.33333333  0.44444444  0.33333333
     530 -0.22222222  0.44444444 -0.33333333     163 -0.22222222  0.44444444  0.33333333
     531 -0.11111111  0.44444444 -0.33333333     164 -0.11111111  0.44444444  0.33333333
     532  0.00000000 -0.44444444 -0.33333333     156  0.00000000  0.44444444  0.33333333
     533  0.11111111 -0.44444444 -0.33333333     164 -0.11111111  0.44444444  0.33333333
     534  0.22222222 -0.44444444 -0.33333333     163 -0.22222222  0.44444444  0.33333333
     535  0.33333333 -0.44444444 -0.33333333     162 -0.33333333  0.44444444  0.33333333
     536  0.44444444 -0.44444444 -0.33333333     161 -0.44444444  0.44444444  0.33333333
     537 -0.44444444 -0.44444444 -0.33333333     160  0.44444444  0.44444444  0.33333333
     538 -0.33333333 -0.44444444 -0.33333333     159  0.33333333  0.44444444  0.33333333
     539 -0.22222222 -0.44444444 -0.33333333     158  0.22222222  0.44444444  0.33333333
     540 -0.11111111 -0.44444444 -0.33333333     157  0.11111111  0.44444444  0.33333333
     541  0.00000000 -0.33333333 -0.33333333     147  0.00000000  0.33333333  0.33333333
     542  0.11111111 -0.33333333 -0.33333333     155 -0.11111111  0.33333333  0.33333333
     543  0.22222222 -0.33333333 -0.33333333     154 -0.22222222  0.33333333  0.33333333
     544  0.33333333 -0.33333333 -0.33333333     153 -0.33333333  0.33333333  0.33333333
     545  0.44444444 -0.33333333 -0.33333333     152  0.44444444 -0.33333333  0.33333333
     546 -0.44444444 -0.33333333 -0.33333333     151  0.44444444  0.33333333  0.33333333
     547 -0.33333333 -0.33333333 -0.33333333     150  0.33333333  0.33333333  0.33333333
     548 -0.22222222 -0.33333333 -0.33333333     149  0.22222222  0.33333333  0.33333333
     549 -0.11111111 -0.33333333 -0.33333333     148  0.11111111  0.33333333  0.33333333
     550  0.00000000 -0.22222222 -0.33333333     138  0.00000000  0.22222222  0.33333333
     551  0.11111111 -0.22222222 -0.33333333     146 -0.11111111  0.22222222  0.33333333
     552  0.22222222 -0.22222222 -0.33333333     145 -0.22222222  0.22222222  0.33333333
     553  0.33333333 -0.22222222 -0.33333333     144  0.33333333 -0.22222222  0.33333333
     554  0.44444444 -0.22222222 -0.33333333     143  0.44444444 -0.22222222  0.33333333
     555 -0.44444444 -0.22222222 -0.33333333     142  0.44444444  0.22222222  0.33333333
     556 -0.33333333 -0.22222222 -0.33333333     141  0.33333333  0.22222222  0.33333333
     557 -0.22222222 -0.22222222 -0.33333333     140  0.22222222  0.22222222  0.33333333
     558 -0.11111111 -0.22222222 -0.33333333     139  0.11111111  0.22222222  0.33333333
     559  0.00000000 -0.11111111 -0.33333333     129  0.00000000  0.11111111  0.33333333
     560  0.11111111 -0.11111111 -0.33333333     137 -0.11111111  0.11111111  0.33333333
     561  0.22222222 -0.11111111 -0.33333333     136  0.22222222 -0.11111111  0.33333333
     562  0.33333333 -0.11111111 -0.33333333     135  0.33333333 -0.11111111  0.33333333
     563  0.44444444 -0.11111111 -0.33333333     134  0.44444444 -0.11111111  0.33333333
     564 -0.44444444 -0.11111111 -0.33333333     133  0.44444444  0.11111111  0.33333333
     565 -0.33333333 -0.11111111 -0.33333333     132  0.33333333  0.11111111  0.33333333
     566 -0.22222222 -0.11111111 -0.33333333     131  0.22222222  0.11111111  0.33333333
     567 -0.11111111 -0.11111111 -0.33333333     130  0.11111111  0.11111111  0.33333333
     568  0.00000000  0.00000000 -0.22222222      83  0.00000000  0.00000000  0.22222222
     569  0.11111111  0.00000000 -0.22222222      84  0.11111111  0.00000000  0.22222222
     570  0.22222222  0.00000000 -0.22222222      85  0.22222222  0.00000000  0.22222222
     571  0.33333333  0.00000000 -0.22222222      86  0.33333333  0.00000000  0.22222222
     572  0.44444444  0.00000000 -0.22222222      87  0.44444444  0.00000000  0.22222222
     573 -0.44444444  0.00000000 -0.22222222      87  0.44444444  0.00000000  0.22222222
     574 -0.33333333  0.00000000 -0.22222222      86  0.33333333  0.00000000  0.22222222
     575 -0.22222222  0.00000000 -0.22222222      85  0.22222222  0.00000000  0.22222222
     576 -0.11111111  0.00000000 -0.22222222      84  0.11111111  0.00000000  0.22222222
     577  0.00000000  0.11111111 -0.22222222      88  0.00000000  0.11111111  0.22222222
     578  0.11111111  0.11111111 -0.22222222      89  0.11111111  0.11111111  0.22222222
     579  0.22222222  0.11111111 -0.22222222      90  0.22222222  0.11111111  0.22222222
     580  0.33333333  0.11111111 -0.22222222      91  0.33333333  0.11111111  0.22222222
     581  0.44444444  0.11111111 -0.22222222      92  0.44444444  0.11111111  0.22222222
     582 -0.44444444  0.11111111 -0.22222222      93  0.44444444 -0.11111111  0.22222222
     583 -0.33333333  0.11111111 -0.22222222      94  0.33333333 -0.11111111  0.22222222
     584 -0.22222222  0.11111111 -0.22222222      95  0.22222222 -0.11111111  0.22222222
     585 -0.11111111  0.11111111 -0.22222222      96 -0.11111111  0.11111111  0.22222222
     586  0.00000000  0.22222222 -0.22222222      97  0.00000000  0.22222222  0.22222222
     587  0.11111111  0.22222222 -0.22222222      98  0.11111111  0.22222222  0.22222222
     588  0.22222222  0.22222222 -0.22222222      99  0.22222222  0.22222222  0.22222222
     589  0.33333333  0.22222222 -0.22222222     100  0.33333333  0.22222222  0.22222222
     590  0.44444444  0.22222222 -0.22222222     101  0.44444444  0.22222222  0.22222222
     591 -0.44444444  0.22222222 -0.22222222     102  0.44444444 -0.22222222  0.22222222
     592 -0.33333333  0.22222222 -0.22222222     103  0.33333333 -0.22222222  0.22222222
     593 -0.22222222  0.22222222 -0.22222222     104 -0.22222222  0.22222222  0.22222222
     594 -0.11111111  0.22222222 -0.22222222     105 -0.11111111  0.22222222  0.22222222
     595  0.00000000  0.33333333 -0.22222222     106  0.00000000  0.33333333  0.22222222
     596  0.11111111  0.33333333 -0.22222222     107  0.11111111  0.33333333  0.22222222
     597  0.22222222  0.33333333 -0.22222222     108  0.22222222  0.33333333  0.22222222
     598  0.33333333  0.33333333 -0.22222222     109  0.33333333  0.33333333  0.22222222
     599  0.44444444  0.33333333 -0.22222222     110  0.44444444  0.33333333  0.22222222
     600 -0.44444444  0.33333333 -0.22222222     111  0.44444444 -0.33333333  0.22222222
     601 -0.33333333  0.33333333 -0.22222222     112 -0.33333333  0.33333333  0.22222222
     602 -0.22222222  0.33333333 -0.22222222     113 -0.22222222  0.33333333  0.22222222
     603 -0.11111111  0.33333333 -0.22222222     114 -0.11111111  0.33333333  0.22222222
     604  0.00000000  0.44444444 -0.22222222     115  0.00000000  0.44444444  0.22222222
     605  0.11111111  0.44444444 -0.22222222     116  0.11111111  0.44444444  0.22222222
     606  0.22222222  0.44444444 -0.22222222     117  0.22222222  0.44444444  0.22222222
     607  0.33333333  0.44444444 -0.22222222     118  0.33333333  0.44444444  0.22222222
     608  0.44444444  0.44444444 -0.22222222     119  0.44444444  0.44444444  0.22222222
     609 -0.44444444  0.44444444 -0.22222222     120 -0.44444444  0.44444444  0.22222222
     610 -0.33333333  0.44444444 -0.22222222     121 -0.33333333  0.44444444  0.22222222
     611 -0.22222222  0.44444444 -0.22222222     122 -0.22222222  0.44444444  0.22222222
     612 -0.11111111  0.44444444 -0.22222222     123 -0.11111111  0.44444444  0.22222222
     613  0.00000000 -0.44444444 -0.22222222     115  0.00000000  0.44444444  0.22222222
     614  0.11111111 -0.44444444 -0.22222222     123 -0.11111111  0.44444444  0.22222222
     615  0.22222222 -0.44444444 -0.22222222     122 -0.22222222  0.44444444  0.22222222
     616  0.33333333 -0.44444444 -0.22222222     121 -0.33333333  0.44444444  0.22222222
     617  0.44444444 -0.44444444 -0.22222222     120 -0.44444444  0.44444444  0.22222222
     618 -0.44444444 -0.44444444 -0.22222222     119  0.44444444  0.44444444  0.22222222
     619 -0.33333333 -0.44444444 -0.22222222     118  0.33333333  0.44444444  0.22222222
     620 -0.22222222 -0.44444444 -0.22222222     117  0.22222222  0.44444444  0.22222222
     621 -0.11111111 -0.44444444 -0.22222222     116  0.11111111  0.44444444  0.22222222
     622  0.00000000 -0.33333333 -0.22222222     106  0.00000000  0.33333333  0.22222222
     623  0.11111111 -0.33333333 -0.22222222     114 -0.11111111  0.33333333  0.22222222
     624  0.22222222 -0.33333333 -0.22222222     113 -0.22222222  0.33333333  0.22222222
     625  0.33333333 -0.33333333 -0.22222222     112 -0.33333333  0.33333333  0.22222222
     626  0.44444444 -0.33333333 -0.22222222     111  0.44444444 -0.33333333  0.22222222
     627 -0.44444444 -0.33333333 -0.22222222     110  0.44444444  0.33333333  0.22222222
     628 -0.33333333 -0.33333333 -0.22222222     109  0.33333333  0.33333333  0.22222222
     629 -0.22222222 -0.33333333 -0.22222222     108  0.22222222  0.33333333  0.22222222
     630 -0.11111111 -0.33333333 -0.22222222     107  0.11111111  0.33333333  0.22222222
     631  0.00000000 -0.22222222 -0.22222222      97  0.00000000  0.22222222  0.22222222
     632  0.11111111 -0.22222222 -0.22222222     105 -0.11111111  0.22222222  0.22222222
     633  0.22222222 -0.22222222 -0.22222222     104 -0.22222222  0.22222222  0.22222222
     634  0.33333333 -0.22222222 -0.22222222     103  0.33333333 -0.22222222  0.22222222
     635  0.44444444 -0.22222222 -0.22222222     102  0.44444444 -0.22222222  0.22222222
     636 -0.44444444 -0.22222222 -0.22222222     101  0.44444444  0.22222222  0.22222222
     637 -0.33333333 -0.22222222 -0.22222222     100  0.33333333  0.22222222  0.22222222
     638 -0.22222222 -0.22222222 -0.22222222      99  0.22222222  0.22222222  0.22222222
     639 -0.11111111 -0.22222222 -0.22222222      98  0.11111111  0.22222222  0.22222222
     640  0.00000000 -0.11111111 -0.22222222      88  0.00000000  0.11111111  0.22222222
     641  0.11111111 -0.11111111 -0.22222222      96 -0.11111111  0.11111111  0.22222222
     642  0.22222222 -0.11111111 -0.22222222      95  0.22222222 -0.11111111  0.22222222
     643  0.33333333 -0.11111111 -0.22222222      94  0.33333333 -0.11111111  0.22222222
     644  0.44444444 -0.11111111 -0.22222222      93  0.44444444 -0.11111111  0.22222222
     645 -0.44444444 -0.11111111 -0.22222222      92  0.44444444  0.11111111  0.22222222
     646 -0.33333333 -0.11111111 -0.22222222      91  0.33333333  0.11111111  0.22222222
     647 -0.22222222 -0.11111111 -0.22222222      90  0.22222222  0.11111111  0.22222222
     648 -0.11111111 -0.11111111 -0.22222222      89  0.11111111  0.11111111  0.22222222
     649  0.00000000  0.00000000 -0.11111111      42  0.00000000  0.00000000  0.11111111
     650  0.11111111  0.00000000 -0.11111111      43  0.11111111  0.00000000  0.11111111
     651  0.22222222  0.00000000 -0.11111111      44  0.22222222  0.00000000  0.11111111
     652  0.33333333  0.00000000 -0.11111111      45  0.33333333  0.00000000  0.11111111
     653  0.44444444  0.00000000 -0.11111111      46  0.44444444  0.00000000  0.11111111
     654 -0.44444444  0.00000000 -0.11111111      46  0.44444444  0.00000000  0.11111111
     655 -0.33333333  0.00000000 -0.11111111      45  0.33333333  0.00000000  0.11111111
     656 -0.22222222  0.00000000 -0.11111111      44  0.22222222  0.00000000  0.11111111
     657 -0.11111111  0.00000000 -0.11111111      43  0.11111111  0.00000000  0.11111111
     658  0.00000000  0.11111111 -0.11111111      47  0.00000000  0.11111111  0.11111111
     659  0.11111111  0.11111111 -0.11111111      48  0.11111111  0.11111111  0.11111111
     660  0.22222222  0.11111111 -0.11111111      49  0.22222222  0.11111111  0.11111111
     661  0.33333333  0.11111111 -0.11111111      50  0.33333333  0.11111111  0.11111111
     662  0.44444444  0.11111111 -0.11111111      51  0.44444444  0.11111111  0.11111111
     663 -0.44444444  0.11111111 -0.11111111      52  0.44444444 -0.11111111  0.11111111
     664 -0.33333333  0.11111111 -0.11111111      53  0.33333333 -0.11111111  0.11111111
     665 -0.22222222  0.11111111 -0.11111111      54  0.22222222 -0.11111111  0.11111111
     666 -0.11111111  0.11111111 -0.11111111      55 -0.11111111  0.11111111  0.11111111
     667  0.00000000  0.22222222 -0.11111111      56  0.00000000  0.22222222  0.11111111
     668  0.11111111  0.22222222 -0.11111111      57  0.11111111  0.22222222  0.11111111
     669  0.22222222  0.22222222 -0.11111111      58  0.22222222  0.22222222  0.11111111
     670  0.33333333  0.22222222 -0.11111111      59  0.33333333  0.22222222  0.11111111
     671  0.44444444  0.22222222 -0.11111111      60  0.44444444  0.22222222  0.11111111
     672 -0.44444444  0.22222222 -0.11111111      61  0.44444444 -0.22222222  0.11111111
     673 -0.33333333  0.22222222 -0.11111111      62  0.33333333 -0.22222222  0.11111111
     674 -0.22222222  0.22222222 -0.11111111      63 -0.22222222  0.22222222  0.11111111
     675 -0.11111111  0.22222222 -0.11111111      64 -0.11111111  0.22222222  0.11111111
     676  0.00000000  0.33333333 -0.11111111      65  0.00000000  0.33333333  0.11111111
     677  0.11111111  0.33333333 -0.11111111      66  0.11111111  0.33333333  0.11111111
     678  0.22222222  0.33333333 -0.11111111      67  0.22222222  0.33333333  0.11111111
     679  0.33333333  0.33333333 -0.11111111      68  0.33333333  0.33333333  0.11111111
     680  0.44444444  0.33333333 -0.11111111      69  0.44444444  0.33333333  0.11111111
     681 -0.44444444  0.33333333 -0.11111111      70  0.44444444 -0.33333333  0.11111111
     682 -0.33333333  0.33333333 -0.11111111      71 -0.33333333  0.33333333  0.11111111
     683 -0.22222222  0.33333333 -0.11111111      72 -0.22222222  0.33333333  0.11111111
     684 -0.11111111  0.33333333 -0.11111111      73 -0.11111111  0.33333333  0.11111111
     685  0.00000000  0.44444444 -0.11111111      74  0.00000000  0.44444444  0.11111111
     686  0.11111111  0.44444444 -0.11111111      75  0.11111111  0.44444444  0.11111111
     687  0.22222222  0.44444444 -0.11111111      76  0.22222222  0.44444444  0.11111111
     688  0.33333333  0.44444444 -0.11111111      77  0.33333333  0.44444444  0.11111111
     689  0.44444444  0.44444444 -0.11111111      78  0.44444444  0.44444444  0.11111111
     690 -0.44444444  0.44444444 -0.11111111      79 -0.44444444  0.44444444  0.11111111
     691 -0.33333333  0.44444444 -0.11111111      80 -0.33333333  0.44444444  0.11111111
     692 -0.22222222  0.44444444 -0.11111111      81 -0.22222222  0.44444444  0.11111111
     693 -0.11111111  0.44444444 -0.11111111      82 -0.11111111  0.44444444  0.11111111
     694  0.00000000 -0.44444444 -0.11111111      74  0.00000000  0.44444444  0.11111111
     695  0.11111111 -0.44444444 -0.11111111      82 -0.11111111  0.44444444  0.11111111
     696  0.22222222 -0.44444444 -0.11111111      81 -0.22222222  0.44444444  0.11111111
     697  0.33333333 -0.44444444 -0.11111111      80 -0.33333333  0.44444444  0.11111111
     698  0.44444444 -0.44444444 -0.11111111      79 -0.44444444  0.44444444  0.11111111
     699 -0.44444444 -0.44444444 -0.11111111      78  0.44444444  0.44444444  0.11111111
     700 -0.33333333 -0.44444444 -0.11111111      77  0.33333333  0.44444444  0.11111111
     701 -0.22222222 -0.44444444 -0.11111111      76  0.22222222  0.44444444  0.11111111
     702 -0.11111111 -0.44444444 -0.11111111      75  0.11111111  0.44444444  0.11111111
     703  0.00000000 -0.33333333 -0.11111111      65  0.00000000  0.33333333  0.11111111
     704  0.11111111 -0.33333333 -0.11111111      73 -0.11111111  0.33333333  0.11111111
     705  0.22222222 -0.33333333 -0.11111111      72 -0.22222222  0.33333333  0.11111111
     706  0.33333333 -0.33333333 -0.11111111      71 -0.33333333  0.33333333  0.11111111
     707  0.44444444 -0.33333333 -0.11111111      70  0.44444444 -0.33333333  0.11111111
     708 -0.44444444 -0.33333333 -0.11111111      69  0.44444444  0.33333333  0.11111111
     709 -0.33333333 -0.33333333 -0.11111111      68  0.33333333  0.33333333  0.11111111
     710 -0.22222222 -0.33333333 -0.11111111      67  0.22222222  0.33333333  0.11111111
     711 -0.11111111 -0.33333333 -0.11111111      66  0.11111111  0.33333333  0.11111111
     712  0.00000000 -0.22222222 -0.11111111      56  0.00000000  0.22222222  0.11111111
     713  0.11111111 -0.22222222 -0.11111111      64 -0.11111111  0.22222222  0.11111111
     714  0.22222222 -0.22222222 -0.11111111      63 -0.22222222  0.22222222  0.11111111
     715  0.33333333 -0.22222222 -0.11111111      62  0.33333333 -0.22222222  0.11111111
     716  0.44444444 -0.22222222 -0.11111111      61  0.44444444 -0.22222222  0.11111111
     717 -0.44444444 -0.22222222 -0.11111111      60  0.44444444  0.22222222  0.11111111
     718 -0.33333333 -0.22222222 -0.11111111      59  0.33333333  0.22222222  0.11111111
     719 -0.22222222 -0.22222222 -0.11111111      58  0.22222222  0.22222222  0.11111111
     720 -0.11111111 -0.22222222 -0.11111111      57  0.11111111  0.22222222  0.11111111
     721  0.00000000 -0.11111111 -0.11111111      47  0.00000000  0.11111111  0.11111111
     722  0.11111111 -0.11111111 -0.11111111      55 -0.11111111  0.11111111  0.11111111
     723  0.22222222 -0.11111111 -0.11111111      54  0.22222222 -0.11111111  0.11111111
     724  0.33333333 -0.11111111 -0.11111111      53  0.33333333 -0.11111111  0.11111111
     725  0.44444444 -0.11111111 -0.11111111      52  0.44444444 -0.11111111  0.11111111
     726 -0.44444444 -0.11111111 -0.11111111      51  0.44444444  0.11111111  0.11111111
     727 -0.33333333 -0.11111111 -0.11111111      50  0.33333333  0.11111111  0.11111111
     728 -0.22222222 -0.11111111 -0.11111111      49  0.22222222  0.11111111  0.11111111
     729 -0.11111111 -0.11111111 -0.11111111      48  0.11111111  0.11111111  0.11111111

