B  N 
 1.0000000000000000
    24.7965613898618464    0.0000000000000000    0.0000000000000000
     0.0000000000000000   24.7965613898618464    0.0000000000000000
     0.0000000000000000    0.0000000000000000    4.3211403720410733
 B   N  
  12  12
Direct
  0.5974529765000000  0.5000000000000000  0.9998983220999998
  0.5843967549000000  0.5487264881000000  0.4998983808000000
  0.5487264881000000  0.5843967549000000  0.9998983807999999
  0.5000000000000000  0.5974529765000000  0.4998983221000000
  0.4512735119000000  0.5843967549000000  0.9998983807999999
  0.4156032451000000  0.5487264881000000  0.4998983808000000
  0.4025470235000000  0.5000000000000000  0.9998983220999998
  0.4156032451000000  0.4512735119000000  0.4998983808000000
  0.4512735119000000  0.4156032451000000  0.9998983807999999
  0.5000000000000000  0.4025470235000000  0.4998983221000000
  0.5487264881000000  0.4156032451000000  0.9998983807999999
  0.5843967549000000  0.4512735119000000  0.4998983808000000
  0.5875312537000000  0.5505361836000000  0.8334349454000000
  0.5505361836000000  0.5875312537000000  0.3334349454000000
  0.5000000000000000  0.6010723628000000  0.8334350256000000
  0.4494638164000000  0.5875312537000000  0.3334349454000000
  0.4124687463000000  0.5505361836000000  0.8334349454000000
  0.3989276372000000  0.5000000000000000  0.3334350256000000
  0.4124687463000000  0.4494638164000000  0.8334349454000000
  0.4494638164000000  0.4124687463000000  0.3334349454000000
  0.5000000000000000  0.3989276372000000  0.8334350256000000
  0.5505361836000000  0.4124687463000000  0.3334349454000000
  0.5875312537000000  0.4494638164000000  0.8334349454000000
  0.6010723628000000  0.5000000000000000  0.3334350256000000
