Ferroelectric alpha-In2Se3 monolayer; 2D BEC panel b
1.0
      4.0967955909      0.0002389744      0.0000000000
     -2.0481854372      3.5459366262      0.0000000000
      0.0000000000      0.0000000000     36.3667690049
  In  Se
  2  3
Direct
      0.0000000000      0.0000000000      0.5764564793
      0.6666666667      0.3333333333      0.4600770669
      0.3333333333      0.6666666667      0.6127412705
      0.6666666667      0.3333333333      0.5301124581
      0.3333333333      0.6666666667      0.4257580248
