Cubic Pm-3m BaTiO3; bulk BEC panel a
1.0
      3.9814148909      0.0000000000      0.0000000000
      0.0000000000      3.9814148909      0.0000000000
      0.0000000000      0.0000000000      3.9814148909
  Ba  Ti  O
  1  1  3
Direct
      0.5000000000      0.5000000000      0.5000000000
      0.0000000000      0.0000000000      0.0000000000
      0.5000000000      0.0000000000      0.0000000000
      0.0000000000      0.5000000000      0.0000000000
      0.0000000000      0.0000000000      0.5000000000
