Tetragonal P4mm BaTiO3; Figure 3j
1.0
      3.9588723113      0.0000000000      0.0000000000
      0.0000000000      3.9588723113      0.0000000000
      0.0000000000      0.0000000000      4.0801979092
  Ba  Ti  O
  1  1  3
Direct
      0.5000000000      0.5000000000      0.5833836830
      0.0000000000      0.0000000000      0.1012802987
      0.0000000000      0.5000000000      0.0632235963
      0.5000000000      0.0000000000      0.0632235963
      0.0000000000      0.0000000000      0.5488858156
