CH4 molecule; Figure 3a and molecular APT panel b
1.0
     20.0000000040      0.0000000000      0.0000000000
      0.0000000000     20.0000000040      0.0000000000
      0.0000000000      0.0000000000     20.0000000040
  C  H
  1  4
Direct
      0.5000001992      0.5000001992      0.5000001992
      0.5315986574      0.5315986574      0.5315986574
      0.5315986574      0.4684017409      0.4684017409
      0.4684017409      0.5315986574      0.4684017409
      0.4684017409      0.4684017409      0.5315986574
