H-passivated wurtzite GaAs nanowire; Figure 3d
1.0
     25.0000000110      0.0000000000      0.0000000000
      0.0000000000     25.0000000110      0.0000000000
      0.0000000000      0.0000000000      6.6795580029
  As  Ga  H
  6  6  12
Direct
      0.9238099691      0.9560116699      0.3720994692
      0.0000000800      0.9120234631      0.8720994916
      0.9238101291      0.0439883301      0.8720994692
      0.0761898709      0.9560116699      0.3720994692
      0.9999999200      0.0879765369      0.3720994916
      0.0761900309      0.0439883301      0.8720994692
      0.9152193630      0.9510519654      0.0016017701
      0.0000000800      0.9021038098      0.5016019102
      0.9152195230      0.0489480346      0.5016017701
      0.0847804770      0.9510519654      0.0016017701
      0.9999999200      0.0978961902      0.0016019102
      0.0847806370      0.0489480346      0.5016017701
      0.8639433890      0.9214477411      0.9265351645
      0.0000000400      0.8428953702      0.4265355435
      0.8738829443      0.9271862591      0.4477634607
      0.0000000400      0.8543726819      0.9477636023
      0.8639434690      0.0785522189      0.4265353142
      0.8738830243      0.0728137009      0.9477633110
      0.1360565310      0.9214477811      0.9265353142
      0.1261169757      0.9271862991      0.4477633110
      0.9999999600      0.1571046298      0.9265355435
      0.1360566110      0.0785522589      0.4265351645
      0.9999999600      0.1456273181      0.4477636023
      0.1261170557      0.0728137409      0.9477634607
