Tetragonal P42/nmc HfO2; Figure 6j and bulk BEC panel b
1.0
      3.5573606511      0.0000000000      0.0000000000
      0.0000000000      3.5573606511      0.0000000000
      0.0000000000      0.0000000000      5.1334712351
  Hf  O
  2  4
Direct
      0.0000000000      0.0000000000      0.0000000000
      0.5000000000      0.5000000000      0.5000000000
      0.5000000000      0.0000000000      0.2967982228
      0.5000000000      0.0000000000      0.7967982228
      0.0000000000      0.5000000000      0.2032017772
      0.0000000000      0.5000000000      0.7032017772
