Tetragonal P4mm PbTiO3; archived spectroscopy validation
1.0
      3.8607839872      0.0000000000      0.0000000000
      0.0000000000      3.8607839872      0.0000000000
      0.0000000000      0.0000000000      4.2472822161
  Pb  Ti  O
  1  1  3
Direct
      0.0000000000      0.0000000000      0.1199052410
      0.5000000000      0.5000000000      0.5829944000
      0.0000000000      0.5000000000      0.4948886107
      0.5000000000      0.0000000000      0.4948886107
      0.5000000000      0.5000000000      0.9975231536
