                               nkstot now = 35
K-POINTS DIRECT COORDINATES
 KPOINTS    DIRECT_X    DIRECT_Y    DIRECT_Z  WEIGHT
       1  0.00000000  0.00000000  0.00000000  0.0014
       2  0.11111111  0.00000000  0.00000000  0.0082
       3  0.22222222  0.00000000  0.00000000  0.0082
       4  0.33333333  0.00000000  0.00000000  0.0082
       5  0.44444444  0.00000000  0.00000000  0.0082
       6  0.11111111  0.11111111  0.00000000  0.0165
       7  0.22222222  0.11111111  0.00000000  0.0329
       8  0.33333333  0.11111111  0.00000000  0.0329
       9  0.44444444  0.11111111  0.00000000  0.0329
      10  0.22222222  0.22222222  0.00000000  0.0165
      11  0.33333333  0.22222222  0.00000000  0.0329
      12  0.44444444  0.22222222  0.00000000  0.0329
      13  0.33333333  0.33333333  0.00000000  0.0165
      14  0.44444444  0.33333333  0.00000000  0.0329
      15  0.44444444  0.44444444  0.00000000  0.0165
      16  0.11111111  0.11111111  0.11111111  0.0110
      17  0.22222222  0.11111111  0.11111111  0.0329
      18  0.33333333  0.11111111  0.11111111  0.0329
      19  0.11111111  0.11111111  0.44444444  0.0329
      20  0.22222222  0.22222222  0.11111111  0.0329
      21  0.33333333  0.11111111  0.22222222  0.0658
      22  0.44444444  0.22222222  0.11111111  0.0658
      23  0.33333333  0.11111111  0.33333333  0.0329
      24  0.44444444  0.33333333  0.11111111  0.0658
      25  0.44444444  0.44444444  0.11111111  0.0329
      26  0.22222222  0.22222222  0.22222222  0.0110
      27  0.22222222  0.22222222  0.33333333  0.0329
      28  0.44444444  0.22222222  0.22222222  0.0329
      29  0.33333333  0.33333333  0.22222222  0.0329
      30  0.44444444  0.33333333  0.22222222  0.0658
      31  0.44444444  0.44444444  0.22222222  0.0329
      32  0.33333333  0.33333333  0.33333333  0.0110
      33  0.44444444  0.33333333  0.33333333  0.0329
      34  0.44444444  0.44444444  0.33333333  0.0329
      35  0.44444444  0.44444444  0.44444444  0.0110

                                   nkstot = 729                                                            ibzkpt
K-POINTS REDUCTION ACCORDING TO SYMMETRY
     KPT    DIRECT_X    DIRECT_Y    DIRECT_Z     IBZ    DIRECT_X    DIRECT_Y    DIRECT_Z
       1  0.00000000  0.00000000  0.00000000       1  0.00000000  0.00000000  0.00000000
       2  0.11111111  0.00000000  0.00000000       2  0.11111111  0.00000000  0.00000000
       3  0.22222222  0.00000000  0.00000000       3  0.22222222  0.00000000  0.00000000
       4  0.33333333  0.00000000  0.00000000       4  0.33333333  0.00000000  0.00000000
       5  0.44444444  0.00000000  0.00000000       5  0.44444444  0.00000000  0.00000000
       6 -0.44444444  0.00000000  0.00000000       5  0.44444444  0.00000000  0.00000000
       7 -0.33333333  0.00000000  0.00000000       4  0.33333333  0.00000000  0.00000000
       8 -0.22222222  0.00000000  0.00000000       3  0.22222222  0.00000000  0.00000000
       9 -0.11111111  0.00000000  0.00000000       2  0.11111111  0.00000000  0.00000000
      10  0.00000000  0.11111111  0.00000000       2  0.11111111  0.00000000  0.00000000
      11  0.11111111  0.11111111  0.00000000       6  0.11111111  0.11111111  0.00000000
      12  0.22222222  0.11111111  0.00000000       7  0.22222222  0.11111111  0.00000000
      13  0.33333333  0.11111111  0.00000000       8  0.33333333  0.11111111  0.00000000
      14  0.44444444  0.11111111  0.00000000       9  0.44444444  0.11111111  0.00000000
      15 -0.44444444  0.11111111  0.00000000       9  0.44444444  0.11111111  0.00000000
      16 -0.33333333  0.11111111  0.00000000       8  0.33333333  0.11111111  0.00000000
      17 -0.22222222  0.11111111  0.00000000       7  0.22222222  0.11111111  0.00000000
      18 -0.11111111  0.11111111  0.00000000       6  0.11111111  0.11111111  0.00000000
      19  0.00000000  0.22222222  0.00000000       3  0.22222222  0.00000000  0.00000000
      20  0.11111111  0.22222222  0.00000000       7  0.22222222  0.11111111  0.00000000
      21  0.22222222  0.22222222  0.00000000      10  0.22222222  0.22222222  0.00000000
      22  0.33333333  0.22222222  0.00000000      11  0.33333333  0.22222222  0.00000000
      23  0.44444444  0.22222222  0.00000000      12  0.44444444  0.22222222  0.00000000
      24 -0.44444444  0.22222222  0.00000000      12  0.44444444  0.22222222  0.00000000
      25 -0.33333333  0.22222222  0.00000000      11  0.33333333  0.22222222  0.00000000
      26 -0.22222222  0.22222222  0.00000000      10  0.22222222  0.22222222  0.00000000
      27 -0.11111111  0.22222222  0.00000000       7  0.22222222  0.11111111  0.00000000
      28  0.00000000  0.33333333  0.00000000       4  0.33333333  0.00000000  0.00000000
      29  0.11111111  0.33333333  0.00000000       8  0.33333333  0.11111111  0.00000000
      30  0.22222222  0.33333333  0.00000000      11  0.33333333  0.22222222  0.00000000
      31  0.33333333  0.33333333  0.00000000      13  0.33333333  0.33333333  0.00000000
      32  0.44444444  0.33333333  0.00000000      14  0.44444444  0.33333333  0.00000000
      33 -0.44444444  0.33333333  0.00000000      14  0.44444444  0.33333333  0.00000000
      34 -0.33333333  0.33333333  0.00000000      13  0.33333333  0.33333333  0.00000000
      35 -0.22222222  0.33333333  0.00000000      11  0.33333333  0.22222222  0.00000000
      36 -0.11111111  0.33333333  0.00000000       8  0.33333333  0.11111111  0.00000000
      37  0.00000000  0.44444444  0.00000000       5  0.44444444  0.00000000  0.00000000
      38  0.11111111  0.44444444  0.00000000       9  0.44444444  0.11111111  0.00000000
      39  0.22222222  0.44444444  0.00000000      12  0.44444444  0.22222222  0.00000000
      40  0.33333333  0.44444444  0.00000000      14  0.44444444  0.33333333  0.00000000
      41  0.44444444  0.44444444  0.00000000      15  0.44444444  0.44444444  0.00000000
      42 -0.44444444  0.44444444  0.00000000      15  0.44444444  0.44444444  0.00000000
      43 -0.33333333  0.44444444  0.00000000      14  0.44444444  0.33333333  0.00000000
      44 -0.22222222  0.44444444  0.00000000      12  0.44444444  0.22222222  0.00000000
      45 -0.11111111  0.44444444  0.00000000       9  0.44444444  0.11111111  0.00000000
      46  0.00000000 -0.44444444  0.00000000       5  0.44444444  0.00000000  0.00000000
      47  0.11111111 -0.44444444  0.00000000       9  0.44444444  0.11111111  0.00000000
      48  0.22222222 -0.44444444  0.00000000      12  0.44444444  0.22222222  0.00000000
      49  0.33333333 -0.44444444  0.00000000      14  0.44444444  0.33333333  0.00000000
      50  0.44444444 -0.44444444  0.00000000      15  0.44444444  0.44444444  0.00000000
      51 -0.44444444 -0.44444444  0.00000000      15  0.44444444  0.44444444  0.00000000
      52 -0.33333333 -0.44444444  0.00000000      14  0.44444444  0.33333333  0.00000000
      53 -0.22222222 -0.44444444  0.00000000      12  0.44444444  0.22222222  0.00000000
      54 -0.11111111 -0.44444444  0.00000000       9  0.44444444  0.11111111  0.00000000
      55  0.00000000 -0.33333333  0.00000000       4  0.33333333  0.00000000  0.00000000
      56  0.11111111 -0.33333333  0.00000000       8  0.33333333  0.11111111  0.00000000
      57  0.22222222 -0.33333333  0.00000000      11  0.33333333  0.22222222  0.00000000
      58  0.33333333 -0.33333333  0.00000000      13  0.33333333  0.33333333  0.00000000
      59  0.44444444 -0.33333333  0.00000000      14  0.44444444  0.33333333  0.00000000
      60 -0.44444444 -0.33333333  0.00000000      14  0.44444444  0.33333333  0.00000000
      61 -0.33333333 -0.33333333  0.00000000      13  0.33333333  0.33333333  0.00000000
      62 -0.22222222 -0.33333333  0.00000000      11  0.33333333  0.22222222  0.00000000
      63 -0.11111111 -0.33333333  0.00000000       8  0.33333333  0.11111111  0.00000000
      64  0.00000000 -0.22222222  0.00000000       3  0.22222222  0.00000000  0.00000000
      65  0.11111111 -0.22222222  0.00000000       7  0.22222222  0.11111111  0.00000000
      66  0.22222222 -0.22222222  0.00000000      10  0.22222222  0.22222222  0.00000000
      67  0.33333333 -0.22222222  0.00000000      11  0.33333333  0.22222222  0.00000000
      68  0.44444444 -0.22222222  0.00000000      12  0.44444444  0.22222222  0.00000000
      69 -0.44444444 -0.22222222  0.00000000      12  0.44444444  0.22222222  0.00000000
      70 -0.33333333 -0.22222222  0.00000000      11  0.33333333  0.22222222  0.00000000
      71 -0.22222222 -0.22222222  0.00000000      10  0.22222222  0.22222222  0.00000000
      72 -0.11111111 -0.22222222  0.00000000       7  0.22222222  0.11111111  0.00000000
      73  0.00000000 -0.11111111  0.00000000       2  0.11111111  0.00000000  0.00000000
      74  0.11111111 -0.11111111  0.00000000       6  0.11111111  0.11111111  0.00000000
      75  0.22222222 -0.11111111  0.00000000       7  0.22222222  0.11111111  0.00000000
      76  0.33333333 -0.11111111  0.00000000       8  0.33333333  0.11111111  0.00000000
      77  0.44444444 -0.11111111  0.00000000       9  0.44444444  0.11111111  0.00000000
      78 -0.44444444 -0.11111111  0.00000000       9  0.44444444  0.11111111  0.00000000
      79 -0.33333333 -0.11111111  0.00000000       8  0.33333333  0.11111111  0.00000000
      80 -0.22222222 -0.11111111  0.00000000       7  0.22222222  0.11111111  0.00000000
      81 -0.11111111 -0.11111111  0.00000000       6  0.11111111  0.11111111  0.00000000
      82  0.00000000  0.00000000  0.11111111       2  0.11111111  0.00000000  0.00000000
      83  0.11111111  0.00000000  0.11111111       6  0.11111111  0.11111111  0.00000000
      84  0.22222222  0.00000000  0.11111111       7  0.22222222  0.11111111  0.00000000
      85  0.33333333  0.00000000  0.11111111       8  0.33333333  0.11111111  0.00000000
      86  0.44444444  0.00000000  0.11111111       9  0.44444444  0.11111111  0.00000000
      87 -0.44444444  0.00000000  0.11111111       9  0.44444444  0.11111111  0.00000000
      88 -0.33333333  0.00000000  0.11111111       8  0.33333333  0.11111111  0.00000000
      89 -0.22222222  0.00000000  0.11111111       7  0.22222222  0.11111111  0.00000000
      90 -0.11111111  0.00000000  0.11111111       6  0.11111111  0.11111111  0.00000000
      91  0.00000000  0.11111111  0.11111111       6  0.11111111  0.11111111  0.00000000
      92  0.11111111  0.11111111  0.11111111      16  0.11111111  0.11111111  0.11111111
      93  0.22222222  0.11111111  0.11111111      17  0.22222222  0.11111111  0.11111111
      94  0.33333333  0.11111111  0.11111111      18  0.33333333  0.11111111  0.11111111
      95  0.44444444  0.11111111  0.11111111      19  0.11111111  0.11111111  0.44444444
      96 -0.44444444  0.11111111  0.11111111      19  0.11111111  0.11111111  0.44444444
      97 -0.33333333  0.11111111  0.11111111      18  0.33333333  0.11111111  0.11111111
      98 -0.22222222  0.11111111  0.11111111      17  0.22222222  0.11111111  0.11111111
      99 -0.11111111  0.11111111  0.11111111      16  0.11111111  0.11111111  0.11111111
     100  0.00000000  0.22222222  0.11111111       7  0.22222222  0.11111111  0.00000000
     101  0.11111111  0.22222222  0.11111111      17  0.22222222  0.11111111  0.11111111
     102  0.22222222  0.22222222  0.11111111      20  0.22222222  0.22222222  0.11111111
     103  0.33333333  0.22222222  0.11111111      21  0.33333333  0.11111111  0.22222222
     104  0.44444444  0.22222222  0.11111111      22  0.44444444  0.22222222  0.11111111
     105 -0.44444444  0.22222222  0.11111111      22  0.44444444  0.22222222  0.11111111
     106 -0.33333333  0.22222222  0.11111111      21  0.33333333  0.11111111  0.22222222
     107 -0.22222222  0.22222222  0.11111111      20  0.22222222  0.22222222  0.11111111
     108 -0.11111111  0.22222222  0.11111111      17  0.22222222  0.11111111  0.11111111
     109  0.00000000  0.33333333  0.11111111       8  0.33333333  0.11111111  0.00000000
     110  0.11111111  0.33333333  0.11111111      18  0.33333333  0.11111111  0.11111111
     111  0.22222222  0.33333333  0.11111111      21  0.33333333  0.11111111  0.22222222
     112  0.33333333  0.33333333  0.11111111      23  0.33333333  0.11111111  0.33333333
     113  0.44444444  0.33333333  0.11111111      24  0.44444444  0.33333333  0.11111111
     114 -0.44444444  0.33333333  0.11111111      24  0.44444444  0.33333333  0.11111111
     115 -0.33333333  0.33333333  0.11111111      23  0.33333333  0.11111111  0.33333333
     116 -0.22222222  0.33333333  0.11111111      21  0.33333333  0.11111111  0.22222222
     117 -0.11111111  0.33333333  0.11111111      18  0.33333333  0.11111111  0.11111111
     118  0.00000000  0.44444444  0.11111111       9  0.44444444  0.11111111  0.00000000
     119  0.11111111  0.44444444  0.11111111      19  0.11111111  0.11111111  0.44444444
     120  0.22222222  0.44444444  0.11111111      22  0.44444444  0.22222222  0.11111111
     121  0.33333333  0.44444444  0.11111111      24  0.44444444  0.33333333  0.11111111
     122  0.44444444  0.44444444  0.11111111      25  0.44444444  0.44444444  0.11111111
     123 -0.44444444  0.44444444  0.11111111      25  0.44444444  0.44444444  0.11111111
     124 -0.33333333  0.44444444  0.11111111      24  0.44444444  0.33333333  0.11111111
     125 -0.22222222  0.44444444  0.11111111      22  0.44444444  0.22222222  0.11111111
     126 -0.11111111  0.44444444  0.11111111      19  0.11111111  0.11111111  0.44444444
     127  0.00000000 -0.44444444  0.11111111       9  0.44444444  0.11111111  0.00000000
     128  0.11111111 -0.44444444  0.11111111      19  0.11111111  0.11111111  0.44444444
     129  0.22222222 -0.44444444  0.11111111      22  0.44444444  0.22222222  0.11111111
     130  0.33333333 -0.44444444  0.11111111      24  0.44444444  0.33333333  0.11111111
     131  0.44444444 -0.44444444  0.11111111      25  0.44444444  0.44444444  0.11111111
     132 -0.44444444 -0.44444444  0.11111111      25  0.44444444  0.44444444  0.11111111
     133 -0.33333333 -0.44444444  0.11111111      24  0.44444444  0.33333333  0.11111111
     134 -0.22222222 -0.44444444  0.11111111      22  0.44444444  0.22222222  0.11111111
     135 -0.11111111 -0.44444444  0.11111111      19  0.11111111  0.11111111  0.44444444
     136  0.00000000 -0.33333333  0.11111111       8  0.33333333  0.11111111  0.00000000
     137  0.11111111 -0.33333333  0.11111111      18  0.33333333  0.11111111  0.11111111
     138  0.22222222 -0.33333333  0.11111111      21  0.33333333  0.11111111  0.22222222
     139  0.33333333 -0.33333333  0.11111111      23  0.33333333  0.11111111  0.33333333
     140  0.44444444 -0.33333333  0.11111111      24  0.44444444  0.33333333  0.11111111
     141 -0.44444444 -0.33333333  0.11111111      24  0.44444444  0.33333333  0.11111111
     142 -0.33333333 -0.33333333  0.11111111      23  0.33333333  0.11111111  0.33333333
     143 -0.22222222 -0.33333333  0.11111111      21  0.33333333  0.11111111  0.22222222
     144 -0.11111111 -0.33333333  0.11111111      18  0.33333333  0.11111111  0.11111111
     145  0.00000000 -0.22222222  0.11111111       7  0.22222222  0.11111111  0.00000000
     146  0.11111111 -0.22222222  0.11111111      17  0.22222222  0.11111111  0.11111111
     147  0.22222222 -0.22222222  0.11111111      20  0.22222222  0.22222222  0.11111111
     148  0.33333333 -0.22222222  0.11111111      21  0.33333333  0.11111111  0.22222222
     149  0.44444444 -0.22222222  0.11111111      22  0.44444444  0.22222222  0.11111111
     150 -0.44444444 -0.22222222  0.11111111      22  0.44444444  0.22222222  0.11111111
     151 -0.33333333 -0.22222222  0.11111111      21  0.33333333  0.11111111  0.22222222
     152 -0.22222222 -0.22222222  0.11111111      20  0.22222222  0.22222222  0.11111111
     153 -0.11111111 -0.22222222  0.11111111      17  0.22222222  0.11111111  0.11111111
     154  0.00000000 -0.11111111  0.11111111       6  0.11111111  0.11111111  0.00000000
     155  0.11111111 -0.11111111  0.11111111      16  0.11111111  0.11111111  0.11111111
     156  0.22222222 -0.11111111  0.11111111      17  0.22222222  0.11111111  0.11111111
     157  0.33333333 -0.11111111  0.11111111      18  0.33333333  0.11111111  0.11111111
     158  0.44444444 -0.11111111  0.11111111      19  0.11111111  0.11111111  0.44444444
     159 -0.44444444 -0.11111111  0.11111111      19  0.11111111  0.11111111  0.44444444
     160 -0.33333333 -0.11111111  0.11111111      18  0.33333333  0.11111111  0.11111111
     161 -0.22222222 -0.11111111  0.11111111      17  0.22222222  0.11111111  0.11111111
     162 -0.11111111 -0.11111111  0.11111111      16  0.11111111  0.11111111  0.11111111
     163  0.00000000  0.00000000  0.22222222       3  0.22222222  0.00000000  0.00000000
     164  0.11111111  0.00000000  0.22222222       7  0.22222222  0.11111111  0.00000000
     165  0.22222222  0.00000000  0.22222222      10  0.22222222  0.22222222  0.00000000
     166  0.33333333  0.00000000  0.22222222      11  0.33333333  0.22222222  0.00000000
     167  0.44444444  0.00000000  0.22222222      12  0.44444444  0.22222222  0.00000000
     168 -0.44444444  0.00000000  0.22222222      12  0.44444444  0.22222222  0.00000000
     169 -0.33333333  0.00000000  0.22222222      11  0.33333333  0.22222222  0.00000000
     170 -0.22222222  0.00000000  0.22222222      10  0.22222222  0.22222222  0.00000000
     171 -0.11111111  0.00000000  0.22222222       7  0.22222222  0.11111111  0.00000000
     172  0.00000000  0.11111111  0.22222222       7  0.22222222  0.11111111  0.00000000
     173  0.11111111  0.11111111  0.22222222      17  0.22222222  0.11111111  0.11111111
     174  0.22222222  0.11111111  0.22222222      20  0.22222222  0.22222222  0.11111111
     175  0.33333333  0.11111111  0.22222222      21  0.33333333  0.11111111  0.22222222
     176  0.44444444  0.11111111  0.22222222      22  0.44444444  0.22222222  0.11111111
     177 -0.44444444  0.11111111  0.22222222      22  0.44444444  0.22222222  0.11111111
     178 -0.33333333  0.11111111  0.22222222      21  0.33333333  0.11111111  0.22222222
     179 -0.22222222  0.11111111  0.22222222      20  0.22222222  0.22222222  0.11111111
     180 -0.11111111  0.11111111  0.22222222      17  0.22222222  0.11111111  0.11111111
     181  0.00000000  0.22222222  0.22222222      10  0.22222222  0.22222222  0.00000000
     182  0.11111111  0.22222222  0.22222222      20  0.22222222  0.22222222  0.11111111
     183  0.22222222  0.22222222  0.22222222      26  0.22222222  0.22222222  0.22222222
     184  0.33333333  0.22222222  0.22222222      27  0.22222222  0.22222222  0.33333333
     185  0.44444444  0.22222222  0.22222222      28  0.44444444  0.22222222  0.22222222
     186 -0.44444444  0.22222222  0.22222222      28  0.44444444  0.22222222  0.22222222
     187 -0.33333333  0.22222222  0.22222222      27  0.22222222  0.22222222  0.33333333
     188 -0.22222222  0.22222222  0.22222222      26  0.22222222  0.22222222  0.22222222
     189 -0.11111111  0.22222222  0.22222222      20  0.22222222  0.22222222  0.11111111
     190  0.00000000  0.33333333  0.22222222      11  0.33333333  0.22222222  0.00000000
     191  0.11111111  0.33333333  0.22222222      21  0.33333333  0.11111111  0.22222222
     192  0.22222222  0.33333333  0.22222222      27  0.22222222  0.22222222  0.33333333
     193  0.33333333  0.33333333  0.22222222      29  0.33333333  0.33333333  0.22222222
     194  0.44444444  0.33333333  0.22222222      30  0.44444444  0.33333333  0.22222222
     195 -0.44444444  0.33333333  0.22222222      30  0.44444444  0.33333333  0.22222222
     196 -0.33333333  0.33333333  0.22222222      29  0.33333333  0.33333333  0.22222222
     197 -0.22222222  0.33333333  0.22222222      27  0.22222222  0.22222222  0.33333333
     198 -0.11111111  0.33333333  0.22222222      21  0.33333333  0.11111111  0.22222222
     199  0.00000000  0.44444444  0.22222222      12  0.44444444  0.22222222  0.00000000
     200  0.11111111  0.44444444  0.22222222      22  0.44444444  0.22222222  0.11111111
     201  0.22222222  0.44444444  0.22222222      28  0.44444444  0.22222222  0.22222222
     202  0.33333333  0.44444444  0.22222222      30  0.44444444  0.33333333  0.22222222
     203  0.44444444  0.44444444  0.22222222      31  0.44444444  0.44444444  0.22222222
     204 -0.44444444  0.44444444  0.22222222      31  0.44444444  0.44444444  0.22222222
     205 -0.33333333  0.44444444  0.22222222      30  0.44444444  0.33333333  0.22222222
     206 -0.22222222  0.44444444  0.22222222      28  0.44444444  0.22222222  0.22222222
     207 -0.11111111  0.44444444  0.22222222      22  0.44444444  0.22222222  0.11111111
     208  0.00000000 -0.44444444  0.22222222      12  0.44444444  0.22222222  0.00000000
     209  0.11111111 -0.44444444  0.22222222      22  0.44444444  0.22222222  0.11111111
     210  0.22222222 -0.44444444  0.22222222      28  0.44444444  0.22222222  0.22222222
     211  0.33333333 -0.44444444  0.22222222      30  0.44444444  0.33333333  0.22222222
     212  0.44444444 -0.44444444  0.22222222      31  0.44444444  0.44444444  0.22222222
     213 -0.44444444 -0.44444444  0.22222222      31  0.44444444  0.44444444  0.22222222
     214 -0.33333333 -0.44444444  0.22222222      30  0.44444444  0.33333333  0.22222222
     215 -0.22222222 -0.44444444  0.22222222      28  0.44444444  0.22222222  0.22222222
     216 -0.11111111 -0.44444444  0.22222222      22  0.44444444  0.22222222  0.11111111
     217  0.00000000 -0.33333333  0.22222222      11  0.33333333  0.22222222  0.00000000
     218  0.11111111 -0.33333333  0.22222222      21  0.33333333  0.11111111  0.22222222
     219  0.22222222 -0.33333333  0.22222222      27  0.22222222  0.22222222  0.33333333
     220  0.33333333 -0.33333333  0.22222222      29  0.33333333  0.33333333  0.22222222
     221  0.44444444 -0.33333333  0.22222222      30  0.44444444  0.33333333  0.22222222
     222 -0.44444444 -0.33333333  0.22222222      30  0.44444444  0.33333333  0.22222222
     223 -0.33333333 -0.33333333  0.22222222      29  0.33333333  0.33333333  0.22222222
     224 -0.22222222 -0.33333333  0.22222222      27  0.22222222  0.22222222  0.33333333
     225 -0.11111111 -0.33333333  0.22222222      21  0.33333333  0.11111111  0.22222222
     226  0.00000000 -0.22222222  0.22222222      10  0.22222222  0.22222222  0.00000000
     227  0.11111111 -0.22222222  0.22222222      20  0.22222222  0.22222222  0.11111111
     228  0.22222222 -0.22222222  0.22222222      26  0.22222222  0.22222222  0.22222222
     229  0.33333333 -0.22222222  0.22222222      27  0.22222222  0.22222222  0.33333333
     230  0.44444444 -0.22222222  0.22222222      28  0.44444444  0.22222222  0.22222222
     231 -0.44444444 -0.22222222  0.22222222      28  0.44444444  0.22222222  0.22222222
     232 -0.33333333 -0.22222222  0.22222222      27  0.22222222  0.22222222  0.33333333
     233 -0.22222222 -0.22222222  0.22222222      26  0.22222222  0.22222222  0.22222222
     234 -0.11111111 -0.22222222  0.22222222      20  0.22222222  0.22222222  0.11111111
     235  0.00000000 -0.11111111  0.22222222       7  0.22222222  0.11111111  0.00000000
     236  0.11111111 -0.11111111  0.22222222      17  0.22222222  0.11111111  0.11111111
     237  0.22222222 -0.11111111  0.22222222      20  0.22222222  0.22222222  0.11111111
     238  0.33333333 -0.11111111  0.22222222      21  0.33333333  0.11111111  0.22222222
     239  0.44444444 -0.11111111  0.22222222      22  0.44444444  0.22222222  0.11111111
     240 -0.44444444 -0.11111111  0.22222222      22  0.44444444  0.22222222  0.11111111
     241 -0.33333333 -0.11111111  0.22222222      21  0.33333333  0.11111111  0.22222222
     242 -0.22222222 -0.11111111  0.22222222      20  0.22222222  0.22222222  0.11111111
     243 -0.11111111 -0.11111111  0.22222222      17  0.22222222  0.11111111  0.11111111
     244  0.00000000  0.00000000  0.33333333       4  0.33333333  0.00000000  0.00000000
     245  0.11111111  0.00000000  0.33333333       8  0.33333333  0.11111111  0.00000000
     246  0.22222222  0.00000000  0.33333333      11  0.33333333  0.22222222  0.00000000
     247  0.33333333  0.00000000  0.33333333      13  0.33333333  0.33333333  0.00000000
     248  0.44444444  0.00000000  0.33333333      14  0.44444444  0.33333333  0.00000000
     249 -0.44444444  0.00000000  0.33333333      14  0.44444444  0.33333333  0.00000000
     250 -0.33333333  0.00000000  0.33333333      13  0.33333333  0.33333333  0.00000000
     251 -0.22222222  0.00000000  0.33333333      11  0.33333333  0.22222222  0.00000000
     252 -0.11111111  0.00000000  0.33333333       8  0.33333333  0.11111111  0.00000000
     253  0.00000000  0.11111111  0.33333333       8  0.33333333  0.11111111  0.00000000
     254  0.11111111  0.11111111  0.33333333      18  0.33333333  0.11111111  0.11111111
     255  0.22222222  0.11111111  0.33333333      21  0.33333333  0.11111111  0.22222222
     256  0.33333333  0.11111111  0.33333333      23  0.33333333  0.11111111  0.33333333
     257  0.44444444  0.11111111  0.33333333      24  0.44444444  0.33333333  0.11111111
     258 -0.44444444  0.11111111  0.33333333      24  0.44444444  0.33333333  0.11111111
     259 -0.33333333  0.11111111  0.33333333      23  0.33333333  0.11111111  0.33333333
     260 -0.22222222  0.11111111  0.33333333      21  0.33333333  0.11111111  0.22222222
     261 -0.11111111  0.11111111  0.33333333      18  0.33333333  0.11111111  0.11111111
     262  0.00000000  0.22222222  0.33333333      11  0.33333333  0.22222222  0.00000000
     263  0.11111111  0.22222222  0.33333333      21  0.33333333  0.11111111  0.22222222
     264  0.22222222  0.22222222  0.33333333      27  0.22222222  0.22222222  0.33333333
     265  0.33333333  0.22222222  0.33333333      29  0.33333333  0.33333333  0.22222222
     266  0.44444444  0.22222222  0.33333333      30  0.44444444  0.33333333  0.22222222
     267 -0.44444444  0.22222222  0.33333333      30  0.44444444  0.33333333  0.22222222
     268 -0.33333333  0.22222222  0.33333333      29  0.33333333  0.33333333  0.22222222
     269 -0.22222222  0.22222222  0.33333333      27  0.22222222  0.22222222  0.33333333
     270 -0.11111111  0.22222222  0.33333333      21  0.33333333  0.11111111  0.22222222
     271  0.00000000  0.33333333  0.33333333      13  0.33333333  0.33333333  0.00000000
     272  0.11111111  0.33333333  0.33333333      23  0.33333333  0.11111111  0.33333333
     273  0.22222222  0.33333333  0.33333333      29  0.33333333  0.33333333  0.22222222
     274  0.33333333  0.33333333  0.33333333      32  0.33333333  0.33333333  0.33333333
     275  0.44444444  0.33333333  0.33333333      33  0.44444444  0.33333333  0.33333333
     276 -0.44444444  0.33333333  0.33333333      33  0.44444444  0.33333333  0.33333333
     277 -0.33333333  0.33333333  0.33333333      32  0.33333333  0.33333333  0.33333333
     278 -0.22222222  0.33333333  0.33333333      29  0.33333333  0.33333333  0.22222222
     279 -0.11111111  0.33333333  0.33333333      23  0.33333333  0.11111111  0.33333333
     280  0.00000000  0.44444444  0.33333333      14  0.44444444  0.33333333  0.00000000
     281  0.11111111  0.44444444  0.33333333      24  0.44444444  0.33333333  0.11111111
     282  0.22222222  0.44444444  0.33333333      30  0.44444444  0.33333333  0.22222222
     283  0.33333333  0.44444444  0.33333333      33  0.44444444  0.33333333  0.33333333
     284  0.44444444  0.44444444  0.33333333      34  0.44444444  0.44444444  0.33333333
     285 -0.44444444  0.44444444  0.33333333      34  0.44444444  0.44444444  0.33333333
     286 -0.33333333  0.44444444  0.33333333      33  0.44444444  0.33333333  0.33333333
     287 -0.22222222  0.44444444  0.33333333      30  0.44444444  0.33333333  0.22222222
     288 -0.11111111  0.44444444  0.33333333      24  0.44444444  0.33333333  0.11111111
     289  0.00000000 -0.44444444  0.33333333      14  0.44444444  0.33333333  0.00000000
     290  0.11111111 -0.44444444  0.33333333      24  0.44444444  0.33333333  0.11111111
     291  0.22222222 -0.44444444  0.33333333      30  0.44444444  0.33333333  0.22222222
     292  0.33333333 -0.44444444  0.33333333      33  0.44444444  0.33333333  0.33333333
     293  0.44444444 -0.44444444  0.33333333      34  0.44444444  0.44444444  0.33333333
     294 -0.44444444 -0.44444444  0.33333333      34  0.44444444  0.44444444  0.33333333
     295 -0.33333333 -0.44444444  0.33333333      33  0.44444444  0.33333333  0.33333333
     296 -0.22222222 -0.44444444  0.33333333      30  0.44444444  0.33333333  0.22222222
     297 -0.11111111 -0.44444444  0.33333333      24  0.44444444  0.33333333  0.11111111
     298  0.00000000 -0.33333333  0.33333333      13  0.33333333  0.33333333  0.00000000
     299  0.11111111 -0.33333333  0.33333333      23  0.33333333  0.11111111  0.33333333
     300  0.22222222 -0.33333333  0.33333333      29  0.33333333  0.33333333  0.22222222
     301  0.33333333 -0.33333333  0.33333333      32  0.33333333  0.33333333  0.33333333
     302  0.44444444 -0.33333333  0.33333333      33  0.44444444  0.33333333  0.33333333
     303 -0.44444444 -0.33333333  0.33333333      33  0.44444444  0.33333333  0.33333333
     304 -0.33333333 -0.33333333  0.33333333      32  0.33333333  0.33333333  0.33333333
     305 -0.22222222 -0.33333333  0.33333333      29  0.33333333  0.33333333  0.22222222
     306 -0.11111111 -0.33333333  0.33333333      23  0.33333333  0.11111111  0.33333333
     307  0.00000000 -0.22222222  0.33333333      11  0.33333333  0.22222222  0.00000000
     308  0.11111111 -0.22222222  0.33333333      21  0.33333333  0.11111111  0.22222222
     309  0.22222222 -0.22222222  0.33333333      27  0.22222222  0.22222222  0.33333333
     310  0.33333333 -0.22222222  0.33333333      29  0.33333333  0.33333333  0.22222222
     311  0.44444444 -0.22222222  0.33333333      30  0.44444444  0.33333333  0.22222222
     312 -0.44444444 -0.22222222  0.33333333      30  0.44444444  0.33333333  0.22222222
     313 -0.33333333 -0.22222222  0.33333333      29  0.33333333  0.33333333  0.22222222
     314 -0.22222222 -0.22222222  0.33333333      27  0.22222222  0.22222222  0.33333333
     315 -0.11111111 -0.22222222  0.33333333      21  0.33333333  0.11111111  0.22222222
     316  0.00000000 -0.11111111  0.33333333       8  0.33333333  0.11111111  0.00000000
     317  0.11111111 -0.11111111  0.33333333      18  0.33333333  0.11111111  0.11111111
     318  0.22222222 -0.11111111  0.33333333      21  0.33333333  0.11111111  0.22222222
     319  0.33333333 -0.11111111  0.33333333      23  0.33333333  0.11111111  0.33333333
     320  0.44444444 -0.11111111  0.33333333      24  0.44444444  0.33333333  0.11111111
     321 -0.44444444 -0.11111111  0.33333333      24  0.44444444  0.33333333  0.11111111
     322 -0.33333333 -0.11111111  0.33333333      23  0.33333333  0.11111111  0.33333333
     323 -0.22222222 -0.11111111  0.33333333      21  0.33333333  0.11111111  0.22222222
     324 -0.11111111 -0.11111111  0.33333333      18  0.33333333  0.11111111  0.11111111
     325  0.00000000  0.00000000  0.44444444       5  0.44444444  0.00000000  0.00000000
     326  0.11111111  0.00000000  0.44444444       9  0.44444444  0.11111111  0.00000000
     327  0.22222222  0.00000000  0.44444444      12  0.44444444  0.22222222  0.00000000
     328  0.33333333  0.00000000  0.44444444      14  0.44444444  0.33333333  0.00000000
     329  0.44444444  0.00000000  0.44444444      15  0.44444444  0.44444444  0.00000000
     330 -0.44444444  0.00000000  0.44444444      15  0.44444444  0.44444444  0.00000000
     331 -0.33333333  0.00000000  0.44444444      14  0.44444444  0.33333333  0.00000000
     332 -0.22222222  0.00000000  0.44444444      12  0.44444444  0.22222222  0.00000000
     333 -0.11111111  0.00000000  0.44444444       9  0.44444444  0.11111111  0.00000000
     334  0.00000000  0.11111111  0.44444444       9  0.44444444  0.11111111  0.00000000
     335  0.11111111  0.11111111  0.44444444      19  0.11111111  0.11111111  0.44444444
     336  0.22222222  0.11111111  0.44444444      22  0.44444444  0.22222222  0.11111111
     337  0.33333333  0.11111111  0.44444444      24  0.44444444  0.33333333  0.11111111
     338  0.44444444  0.11111111  0.44444444      25  0.44444444  0.44444444  0.11111111
     339 -0.44444444  0.11111111  0.44444444      25  0.44444444  0.44444444  0.11111111
     340 -0.33333333  0.11111111  0.44444444      24  0.44444444  0.33333333  0.11111111
     341 -0.22222222  0.11111111  0.44444444      22  0.44444444  0.22222222  0.11111111
     342 -0.11111111  0.11111111  0.44444444      19  0.11111111  0.11111111  0.44444444
     343  0.00000000  0.22222222  0.44444444      12  0.44444444  0.22222222  0.00000000
     344  0.11111111  0.22222222  0.44444444      22  0.44444444  0.22222222  0.11111111
     345  0.22222222  0.22222222  0.44444444      28  0.44444444  0.22222222  0.22222222
     346  0.33333333  0.22222222  0.44444444      30  0.44444444  0.33333333  0.22222222
     347  0.44444444  0.22222222  0.44444444      31  0.44444444  0.44444444  0.22222222
     348 -0.44444444  0.22222222  0.44444444      31  0.44444444  0.44444444  0.22222222
     349 -0.33333333  0.22222222  0.44444444      30  0.44444444  0.33333333  0.22222222
     350 -0.22222222  0.22222222  0.44444444      28  0.44444444  0.22222222  0.22222222
     351 -0.11111111  0.22222222  0.44444444      22  0.44444444  0.22222222  0.11111111
     352  0.00000000  0.33333333  0.44444444      14  0.44444444  0.33333333  0.00000000
     353  0.11111111  0.33333333  0.44444444      24  0.44444444  0.33333333  0.11111111
     354  0.22222222  0.33333333  0.44444444      30  0.44444444  0.33333333  0.22222222
     355  0.33333333  0.33333333  0.44444444      33  0.44444444  0.33333333  0.33333333
     356  0.44444444  0.33333333  0.44444444      34  0.44444444  0.44444444  0.33333333
     357 -0.44444444  0.33333333  0.44444444      34  0.44444444  0.44444444  0.33333333
     358 -0.33333333  0.33333333  0.44444444      33  0.44444444  0.33333333  0.33333333
     359 -0.22222222  0.33333333  0.44444444      30  0.44444444  0.33333333  0.22222222
     360 -0.11111111  0.33333333  0.44444444      24  0.44444444  0.33333333  0.11111111
     361  0.00000000  0.44444444  0.44444444      15  0.44444444  0.44444444  0.00000000
     362  0.11111111  0.44444444  0.44444444      25  0.44444444  0.44444444  0.11111111
     363  0.22222222  0.44444444  0.44444444      31  0.44444444  0.44444444  0.22222222
     364  0.33333333  0.44444444  0.44444444      34  0.44444444  0.44444444  0.33333333
     365  0.44444444  0.44444444  0.44444444      35  0.44444444  0.44444444  0.44444444
     366 -0.44444444  0.44444444  0.44444444      35  0.44444444  0.44444444  0.44444444
     367 -0.33333333  0.44444444  0.44444444      34  0.44444444  0.44444444  0.33333333
     368 -0.22222222  0.44444444  0.44444444      31  0.44444444  0.44444444  0.22222222
     369 -0.11111111  0.44444444  0.44444444      25  0.44444444  0.44444444  0.11111111
     370  0.00000000 -0.44444444  0.44444444      15  0.44444444  0.44444444  0.00000000
     371  0.11111111 -0.44444444  0.44444444      25  0.44444444  0.44444444  0.11111111
     372  0.22222222 -0.44444444  0.44444444      31  0.44444444  0.44444444  0.22222222
     373  0.33333333 -0.44444444  0.44444444      34  0.44444444  0.44444444  0.33333333
     374  0.44444444 -0.44444444  0.44444444      35  0.44444444  0.44444444  0.44444444
     375 -0.44444444 -0.44444444  0.44444444      35  0.44444444  0.44444444  0.44444444
     376 -0.33333333 -0.44444444  0.44444444      34  0.44444444  0.44444444  0.33333333
     377 -0.22222222 -0.44444444  0.44444444      31  0.44444444  0.44444444  0.22222222
     378 -0.11111111 -0.44444444  0.44444444      25  0.44444444  0.44444444  0.11111111
     379  0.00000000 -0.33333333  0.44444444      14  0.44444444  0.33333333  0.00000000
     380  0.11111111 -0.33333333  0.44444444      24  0.44444444  0.33333333  0.11111111
     381  0.22222222 -0.33333333  0.44444444      30  0.44444444  0.33333333  0.22222222
     382  0.33333333 -0.33333333  0.44444444      33  0.44444444  0.33333333  0.33333333
     383  0.44444444 -0.33333333  0.44444444      34  0.44444444  0.44444444  0.33333333
     384 -0.44444444 -0.33333333  0.44444444      34  0.44444444  0.44444444  0.33333333
     385 -0.33333333 -0.33333333  0.44444444      33  0.44444444  0.33333333  0.33333333
     386 -0.22222222 -0.33333333  0.44444444      30  0.44444444  0.33333333  0.22222222
     387 -0.11111111 -0.33333333  0.44444444      24  0.44444444  0.33333333  0.11111111
     388  0.00000000 -0.22222222  0.44444444      12  0.44444444  0.22222222  0.00000000
     389  0.11111111 -0.22222222  0.44444444      22  0.44444444  0.22222222  0.11111111
     390  0.22222222 -0.22222222  0.44444444      28  0.44444444  0.22222222  0.22222222
     391  0.33333333 -0.22222222  0.44444444      30  0.44444444  0.33333333  0.22222222
     392  0.44444444 -0.22222222  0.44444444      31  0.44444444  0.44444444  0.22222222
     393 -0.44444444 -0.22222222  0.44444444      31  0.44444444  0.44444444  0.22222222
     394 -0.33333333 -0.22222222  0.44444444      30  0.44444444  0.33333333  0.22222222
     395 -0.22222222 -0.22222222  0.44444444      28  0.44444444  0.22222222  0.22222222
     396 -0.11111111 -0.22222222  0.44444444      22  0.44444444  0.22222222  0.11111111
     397  0.00000000 -0.11111111  0.44444444       9  0.44444444  0.11111111  0.00000000
     398  0.11111111 -0.11111111  0.44444444      19  0.11111111  0.11111111  0.44444444
     399  0.22222222 -0.11111111  0.44444444      22  0.44444444  0.22222222  0.11111111
     400  0.33333333 -0.11111111  0.44444444      24  0.44444444  0.33333333  0.11111111
     401  0.44444444 -0.11111111  0.44444444      25  0.44444444  0.44444444  0.11111111
     402 -0.44444444 -0.11111111  0.44444444      25  0.44444444  0.44444444  0.11111111
     403 -0.33333333 -0.11111111  0.44444444      24  0.44444444  0.33333333  0.11111111
     404 -0.22222222 -0.11111111  0.44444444      22  0.44444444  0.22222222  0.11111111
     405 -0.11111111 -0.11111111  0.44444444      19  0.11111111  0.11111111  0.44444444
     406  0.00000000  0.00000000 -0.44444444       5  0.44444444  0.00000000  0.00000000
     407  0.11111111  0.00000000 -0.44444444       9  0.44444444  0.11111111  0.00000000
     408  0.22222222  0.00000000 -0.44444444      12  0.44444444  0.22222222  0.00000000
     409  0.33333333  0.00000000 -0.44444444      14  0.44444444  0.33333333  0.00000000
     410  0.44444444  0.00000000 -0.44444444      15  0.44444444  0.44444444  0.00000000
     411 -0.44444444  0.00000000 -0.44444444      15  0.44444444  0.44444444  0.00000000
     412 -0.33333333  0.00000000 -0.44444444      14  0.44444444  0.33333333  0.00000000
     413 -0.22222222  0.00000000 -0.44444444      12  0.44444444  0.22222222  0.00000000
     414 -0.11111111  0.00000000 -0.44444444       9  0.44444444  0.11111111  0.00000000
     415  0.00000000  0.11111111 -0.44444444       9  0.44444444  0.11111111  0.00000000
     416  0.11111111  0.11111111 -0.44444444      19  0.11111111  0.11111111  0.44444444
     417  0.22222222  0.11111111 -0.44444444      22  0.44444444  0.22222222  0.11111111
     418  0.33333333  0.11111111 -0.44444444      24  0.44444444  0.33333333  0.11111111
     419  0.44444444  0.11111111 -0.44444444      25  0.44444444  0.44444444  0.11111111
     420 -0.44444444  0.11111111 -0.44444444      25  0.44444444  0.44444444  0.11111111
     421 -0.33333333  0.11111111 -0.44444444      24  0.44444444  0.33333333  0.11111111
     422 -0.22222222  0.11111111 -0.44444444      22  0.44444444  0.22222222  0.11111111
     423 -0.11111111  0.11111111 -0.44444444      19  0.11111111  0.11111111  0.44444444
     424  0.00000000  0.22222222 -0.44444444      12  0.44444444  0.22222222  0.00000000
     425  0.11111111  0.22222222 -0.44444444      22  0.44444444  0.22222222  0.11111111
     426  0.22222222  0.22222222 -0.44444444      28  0.44444444  0.22222222  0.22222222
     427  0.33333333  0.22222222 -0.44444444      30  0.44444444  0.33333333  0.22222222
     428  0.44444444  0.22222222 -0.44444444      31  0.44444444  0.44444444  0.22222222
     429 -0.44444444  0.22222222 -0.44444444      31  0.44444444  0.44444444  0.22222222
     430 -0.33333333  0.22222222 -0.44444444      30  0.44444444  0.33333333  0.22222222
     431 -0.22222222  0.22222222 -0.44444444      28  0.44444444  0.22222222  0.22222222
     432 -0.11111111  0.22222222 -0.44444444      22  0.44444444  0.22222222  0.11111111
     433  0.00000000  0.33333333 -0.44444444      14  0.44444444  0.33333333  0.00000000
     434  0.11111111  0.33333333 -0.44444444      24  0.44444444  0.33333333  0.11111111
     435  0.22222222  0.33333333 -0.44444444      30  0.44444444  0.33333333  0.22222222
     436  0.33333333  0.33333333 -0.44444444      33  0.44444444  0.33333333  0.33333333
     437  0.44444444  0.33333333 -0.44444444      34  0.44444444  0.44444444  0.33333333
     438 -0.44444444  0.33333333 -0.44444444      34  0.44444444  0.44444444  0.33333333
     439 -0.33333333  0.33333333 -0.44444444      33  0.44444444  0.33333333  0.33333333
     440 -0.22222222  0.33333333 -0.44444444      30  0.44444444  0.33333333  0.22222222
     441 -0.11111111  0.33333333 -0.44444444      24  0.44444444  0.33333333  0.11111111
     442  0.00000000  0.44444444 -0.44444444      15  0.44444444  0.44444444  0.00000000
     443  0.11111111  0.44444444 -0.44444444      25  0.44444444  0.44444444  0.11111111
     444  0.22222222  0.44444444 -0.44444444      31  0.44444444  0.44444444  0.22222222
     445  0.33333333  0.44444444 -0.44444444      34  0.44444444  0.44444444  0.33333333
     446  0.44444444  0.44444444 -0.44444444      35  0.44444444  0.44444444  0.44444444
     447 -0.44444444  0.44444444 -0.44444444      35  0.44444444  0.44444444  0.44444444
     448 -0.33333333  0.44444444 -0.44444444      34  0.44444444  0.44444444  0.33333333
     449 -0.22222222  0.44444444 -0.44444444      31  0.44444444  0.44444444  0.22222222
     450 -0.11111111  0.44444444 -0.44444444      25  0.44444444  0.44444444  0.11111111
     451  0.00000000 -0.44444444 -0.44444444      15  0.44444444  0.44444444  0.00000000
     452  0.11111111 -0.44444444 -0.44444444      25  0.44444444  0.44444444  0.11111111
     453  0.22222222 -0.44444444 -0.44444444      31  0.44444444  0.44444444  0.22222222
     454  0.33333333 -0.44444444 -0.44444444      34  0.44444444  0.44444444  0.33333333
     455  0.44444444 -0.44444444 -0.44444444      35  0.44444444  0.44444444  0.44444444
     456 -0.44444444 -0.44444444 -0.44444444      35  0.44444444  0.44444444  0.44444444
     457 -0.33333333 -0.44444444 -0.44444444      34  0.44444444  0.44444444  0.33333333
     458 -0.22222222 -0.44444444 -0.44444444      31  0.44444444  0.44444444  0.22222222
     459 -0.11111111 -0.44444444 -0.44444444      25  0.44444444  0.44444444  0.11111111
     460  0.00000000 -0.33333333 -0.44444444      14  0.44444444  0.33333333  0.00000000
     461  0.11111111 -0.33333333 -0.44444444      24  0.44444444  0.33333333  0.11111111
     462  0.22222222 -0.33333333 -0.44444444      30  0.44444444  0.33333333  0.22222222
     463  0.33333333 -0.33333333 -0.44444444      33  0.44444444  0.33333333  0.33333333
     464  0.44444444 -0.33333333 -0.44444444      34  0.44444444  0.44444444  0.33333333
     465 -0.44444444 -0.33333333 -0.44444444      34  0.44444444  0.44444444  0.33333333
     466 -0.33333333 -0.33333333 -0.44444444      33  0.44444444  0.33333333  0.33333333
     467 -0.22222222 -0.33333333 -0.44444444      30  0.44444444  0.33333333  0.22222222
     468 -0.11111111 -0.33333333 -0.44444444      24  0.44444444  0.33333333  0.11111111
     469  0.00000000 -0.22222222 -0.44444444      12  0.44444444  0.22222222  0.00000000
     470  0.11111111 -0.22222222 -0.44444444      22  0.44444444  0.22222222  0.11111111
     471  0.22222222 -0.22222222 -0.44444444      28  0.44444444  0.22222222  0.22222222
     472  0.33333333 -0.22222222 -0.44444444      30  0.44444444  0.33333333  0.22222222
     473  0.44444444 -0.22222222 -0.44444444      31  0.44444444  0.44444444  0.22222222
     474 -0.44444444 -0.22222222 -0.44444444      31  0.44444444  0.44444444  0.22222222
     475 -0.33333333 -0.22222222 -0.44444444      30  0.44444444  0.33333333  0.22222222
     476 -0.22222222 -0.22222222 -0.44444444      28  0.44444444  0.22222222  0.22222222
     477 -0.11111111 -0.22222222 -0.44444444      22  0.44444444  0.22222222  0.11111111
     478  0.00000000 -0.11111111 -0.44444444       9  0.44444444  0.11111111  0.00000000
     479  0.11111111 -0.11111111 -0.44444444      19  0.11111111  0.11111111  0.44444444
     480  0.22222222 -0.11111111 -0.44444444      22  0.44444444  0.22222222  0.11111111
     481  0.33333333 -0.11111111 -0.44444444      24  0.44444444  0.33333333  0.11111111
     482  0.44444444 -0.11111111 -0.44444444      25  0.44444444  0.44444444  0.11111111
     483 -0.44444444 -0.11111111 -0.44444444      25  0.44444444  0.44444444  0.11111111
     484 -0.33333333 -0.11111111 -0.44444444      24  0.44444444  0.33333333  0.11111111
     485 -0.22222222 -0.11111111 -0.44444444      22  0.44444444  0.22222222  0.11111111
     486 -0.11111111 -0.11111111 -0.44444444      19  0.11111111  0.11111111  0.44444444
     487  0.00000000  0.00000000 -0.33333333       4  0.33333333  0.00000000  0.00000000
     488  0.11111111  0.00000000 -0.33333333       8  0.33333333  0.11111111  0.00000000
     489  0.22222222  0.00000000 -0.33333333      11  0.33333333  0.22222222  0.00000000
     490  0.33333333  0.00000000 -0.33333333      13  0.33333333  0.33333333  0.00000000
     491  0.44444444  0.00000000 -0.33333333      14  0.44444444  0.33333333  0.00000000
     492 -0.44444444  0.00000000 -0.33333333      14  0.44444444  0.33333333  0.00000000
     493 -0.33333333  0.00000000 -0.33333333      13  0.33333333  0.33333333  0.00000000
     494 -0.22222222  0.00000000 -0.33333333      11  0.33333333  0.22222222  0.00000000
     495 -0.11111111  0.00000000 -0.33333333       8  0.33333333  0.11111111  0.00000000
     496  0.00000000  0.11111111 -0.33333333       8  0.33333333  0.11111111  0.00000000
     497  0.11111111  0.11111111 -0.33333333      18  0.33333333  0.11111111  0.11111111
     498  0.22222222  0.11111111 -0.33333333      21  0.33333333  0.11111111  0.22222222
     499  0.33333333  0.11111111 -0.33333333      23  0.33333333  0.11111111  0.33333333
     500  0.44444444  0.11111111 -0.33333333      24  0.44444444  0.33333333  0.11111111
     501 -0.44444444  0.11111111 -0.33333333      24  0.44444444  0.33333333  0.11111111
     502 -0.33333333  0.11111111 -0.33333333      23  0.33333333  0.11111111  0.33333333
     503 -0.22222222  0.11111111 -0.33333333      21  0.33333333  0.11111111  0.22222222
     504 -0.11111111  0.11111111 -0.33333333      18  0.33333333  0.11111111  0.11111111
     505  0.00000000  0.22222222 -0.33333333      11  0.33333333  0.22222222  0.00000000
     506  0.11111111  0.22222222 -0.33333333      21  0.33333333  0.11111111  0.22222222
     507  0.22222222  0.22222222 -0.33333333      27  0.22222222  0.22222222  0.33333333
     508  0.33333333  0.22222222 -0.33333333      29  0.33333333  0.33333333  0.22222222
     509  0.44444444  0.22222222 -0.33333333      30  0.44444444  0.33333333  0.22222222
     510 -0.44444444  0.22222222 -0.33333333      30  0.44444444  0.33333333  0.22222222
     511 -0.33333333  0.22222222 -0.33333333      29  0.33333333  0.33333333  0.22222222
     512 -0.22222222  0.22222222 -0.33333333      27  0.22222222  0.22222222  0.33333333
     513 -0.11111111  0.22222222 -0.33333333      21  0.33333333  0.11111111  0.22222222
     514  0.00000000  0.33333333 -0.33333333      13  0.33333333  0.33333333  0.00000000
     515  0.11111111  0.33333333 -0.33333333      23  0.33333333  0.11111111  0.33333333
     516  0.22222222  0.33333333 -0.33333333      29  0.33333333  0.33333333  0.22222222
     517  0.33333333  0.33333333 -0.33333333      32  0.33333333  0.33333333  0.33333333
     518  0.44444444  0.33333333 -0.33333333      33  0.44444444  0.33333333  0.33333333
     519 -0.44444444  0.33333333 -0.33333333      33  0.44444444  0.33333333  0.33333333
     520 -0.33333333  0.33333333 -0.33333333      32  0.33333333  0.33333333  0.33333333
     521 -0.22222222  0.33333333 -0.33333333      29  0.33333333  0.33333333  0.22222222
     522 -0.11111111  0.33333333 -0.33333333      23  0.33333333  0.11111111  0.33333333
     523  0.00000000  0.44444444 -0.33333333      14  0.44444444  0.33333333  0.00000000
     524  0.11111111  0.44444444 -0.33333333      24  0.44444444  0.33333333  0.11111111
     525  0.22222222  0.44444444 -0.33333333      30  0.44444444  0.33333333  0.22222222
     526  0.33333333  0.44444444 -0.33333333      33  0.44444444  0.33333333  0.33333333
     527  0.44444444  0.44444444 -0.33333333      34  0.44444444  0.44444444  0.33333333
     528 -0.44444444  0.44444444 -0.33333333      34  0.44444444  0.44444444  0.33333333
     529 -0.33333333  0.44444444 -0.33333333      33  0.44444444  0.33333333  0.33333333
     530 -0.22222222  0.44444444 -0.33333333      30  0.44444444  0.33333333  0.22222222
     531 -0.11111111  0.44444444 -0.33333333      24  0.44444444  0.33333333  0.11111111
     532  0.00000000 -0.44444444 -0.33333333      14  0.44444444  0.33333333  0.00000000
     533  0.11111111 -0.44444444 -0.33333333      24  0.44444444  0.33333333  0.11111111
     534  0.22222222 -0.44444444 -0.33333333      30  0.44444444  0.33333333  0.22222222
     535  0.33333333 -0.44444444 -0.33333333      33  0.44444444  0.33333333  0.33333333
     536  0.44444444 -0.44444444 -0.33333333      34  0.44444444  0.44444444  0.33333333
     537 -0.44444444 -0.44444444 -0.33333333      34  0.44444444  0.44444444  0.33333333
     538 -0.33333333 -0.44444444 -0.33333333      33  0.44444444  0.33333333  0.33333333
     539 -0.22222222 -0.44444444 -0.33333333      30  0.44444444  0.33333333  0.22222222
     540 -0.11111111 -0.44444444 -0.33333333      24  0.44444444  0.33333333  0.11111111
     541  0.00000000 -0.33333333 -0.33333333      13  0.33333333  0.33333333  0.00000000
     542  0.11111111 -0.33333333 -0.33333333      23  0.33333333  0.11111111  0.33333333
     543  0.22222222 -0.33333333 -0.33333333      29  0.33333333  0.33333333  0.22222222
     544  0.33333333 -0.33333333 -0.33333333      32  0.33333333  0.33333333  0.33333333
     545  0.44444444 -0.33333333 -0.33333333      33  0.44444444  0.33333333  0.33333333
     546 -0.44444444 -0.33333333 -0.33333333      33  0.44444444  0.33333333  0.33333333
     547 -0.33333333 -0.33333333 -0.33333333      32  0.33333333  0.33333333  0.33333333
     548 -0.22222222 -0.33333333 -0.33333333      29  0.33333333  0.33333333  0.22222222
     549 -0.11111111 -0.33333333 -0.33333333      23  0.33333333  0.11111111  0.33333333
     550  0.00000000 -0.22222222 -0.33333333      11  0.33333333  0.22222222  0.00000000
     551  0.11111111 -0.22222222 -0.33333333      21  0.33333333  0.11111111  0.22222222
     552  0.22222222 -0.22222222 -0.33333333      27  0.22222222  0.22222222  0.33333333
     553  0.33333333 -0.22222222 -0.33333333      29  0.33333333  0.33333333  0.22222222
     554  0.44444444 -0.22222222 -0.33333333      30  0.44444444  0.33333333  0.22222222
     555 -0.44444444 -0.22222222 -0.33333333      30  0.44444444  0.33333333  0.22222222
     556 -0.33333333 -0.22222222 -0.33333333      29  0.33333333  0.33333333  0.22222222
     557 -0.22222222 -0.22222222 -0.33333333      27  0.22222222  0.22222222  0.33333333
     558 -0.11111111 -0.22222222 -0.33333333      21  0.33333333  0.11111111  0.22222222
     559  0.00000000 -0.11111111 -0.33333333       8  0.33333333  0.11111111  0.00000000
     560  0.11111111 -0.11111111 -0.33333333      18  0.33333333  0.11111111  0.11111111
     561  0.22222222 -0.11111111 -0.33333333      21  0.33333333  0.11111111  0.22222222
     562  0.33333333 -0.11111111 -0.33333333      23  0.33333333  0.11111111  0.33333333
     563  0.44444444 -0.11111111 -0.33333333      24  0.44444444  0.33333333  0.11111111
     564 -0.44444444 -0.11111111 -0.33333333      24  0.44444444  0.33333333  0.11111111
     565 -0.33333333 -0.11111111 -0.33333333      23  0.33333333  0.11111111  0.33333333
     566 -0.22222222 -0.11111111 -0.33333333      21  0.33333333  0.11111111  0.22222222
     567 -0.11111111 -0.11111111 -0.33333333      18  0.33333333  0.11111111  0.11111111
     568  0.00000000  0.00000000 -0.22222222       3  0.22222222  0.00000000  0.00000000
     569  0.11111111  0.00000000 -0.22222222       7  0.22222222  0.11111111  0.00000000
     570  0.22222222  0.00000000 -0.22222222      10  0.22222222  0.22222222  0.00000000
     571  0.33333333  0.00000000 -0.22222222      11  0.33333333  0.22222222  0.00000000
     572  0.44444444  0.00000000 -0.22222222      12  0.44444444  0.22222222  0.00000000
     573 -0.44444444  0.00000000 -0.22222222      12  0.44444444  0.22222222  0.00000000
     574 -0.33333333  0.00000000 -0.22222222      11  0.33333333  0.22222222  0.00000000
     575 -0.22222222  0.00000000 -0.22222222      10  0.22222222  0.22222222  0.00000000
     576 -0.11111111  0.00000000 -0.22222222       7  0.22222222  0.11111111  0.00000000
     577  0.00000000  0.11111111 -0.22222222       7  0.22222222  0.11111111  0.00000000
     578  0.11111111  0.11111111 -0.22222222      17  0.22222222  0.11111111  0.11111111
     579  0.22222222  0.11111111 -0.22222222      20  0.22222222  0.22222222  0.11111111
     580  0.33333333  0.11111111 -0.22222222      21  0.33333333  0.11111111  0.22222222
     581  0.44444444  0.11111111 -0.22222222      22  0.44444444  0.22222222  0.11111111
     582 -0.44444444  0.11111111 -0.22222222      22  0.44444444  0.22222222  0.11111111
     583 -0.33333333  0.11111111 -0.22222222      21  0.33333333  0.11111111  0.22222222
     584 -0.22222222  0.11111111 -0.22222222      20  0.22222222  0.22222222  0.11111111
     585 -0.11111111  0.11111111 -0.22222222      17  0.22222222  0.11111111  0.11111111
     586  0.00000000  0.22222222 -0.22222222      10  0.22222222  0.22222222  0.00000000
     587  0.11111111  0.22222222 -0.22222222      20  0.22222222  0.22222222  0.11111111
     588  0.22222222  0.22222222 -0.22222222      26  0.22222222  0.22222222  0.22222222
     589  0.33333333  0.22222222 -0.22222222      27  0.22222222  0.22222222  0.33333333
     590  0.44444444  0.22222222 -0.22222222      28  0.44444444  0.22222222  0.22222222
     591 -0.44444444  0.22222222 -0.22222222      28  0.44444444  0.22222222  0.22222222
     592 -0.33333333  0.22222222 -0.22222222      27  0.22222222  0.22222222  0.33333333
     593 -0.22222222  0.22222222 -0.22222222      26  0.22222222  0.22222222  0.22222222
     594 -0.11111111  0.22222222 -0.22222222      20  0.22222222  0.22222222  0.11111111
     595  0.00000000  0.33333333 -0.22222222      11  0.33333333  0.22222222  0.00000000
     596  0.11111111  0.33333333 -0.22222222      21  0.33333333  0.11111111  0.22222222
     597  0.22222222  0.33333333 -0.22222222      27  0.22222222  0.22222222  0.33333333
     598  0.33333333  0.33333333 -0.22222222      29  0.33333333  0.33333333  0.22222222
     599  0.44444444  0.33333333 -0.22222222      30  0.44444444  0.33333333  0.22222222
     600 -0.44444444  0.33333333 -0.22222222      30  0.44444444  0.33333333  0.22222222
     601 -0.33333333  0.33333333 -0.22222222      29  0.33333333  0.33333333  0.22222222
     602 -0.22222222  0.33333333 -0.22222222      27  0.22222222  0.22222222  0.33333333
     603 -0.11111111  0.33333333 -0.22222222      21  0.33333333  0.11111111  0.22222222
     604  0.00000000  0.44444444 -0.22222222      12  0.44444444  0.22222222  0.00000000
     605  0.11111111  0.44444444 -0.22222222      22  0.44444444  0.22222222  0.11111111
     606  0.22222222  0.44444444 -0.22222222      28  0.44444444  0.22222222  0.22222222
     607  0.33333333  0.44444444 -0.22222222      30  0.44444444  0.33333333  0.22222222
     608  0.44444444  0.44444444 -0.22222222      31  0.44444444  0.44444444  0.22222222
     609 -0.44444444  0.44444444 -0.22222222      31  0.44444444  0.44444444  0.22222222
     610 -0.33333333  0.44444444 -0.22222222      30  0.44444444  0.33333333  0.22222222
     611 -0.22222222  0.44444444 -0.22222222      28  0.44444444  0.22222222  0.22222222
     612 -0.11111111  0.44444444 -0.22222222      22  0.44444444  0.22222222  0.11111111
     613  0.00000000 -0.44444444 -0.22222222      12  0.44444444  0.22222222  0.00000000
     614  0.11111111 -0.44444444 -0.22222222      22  0.44444444  0.22222222  0.11111111
     615  0.22222222 -0.44444444 -0.22222222      28  0.44444444  0.22222222  0.22222222
     616  0.33333333 -0.44444444 -0.22222222      30  0.44444444  0.33333333  0.22222222
     617  0.44444444 -0.44444444 -0.22222222      31  0.44444444  0.44444444  0.22222222
     618 -0.44444444 -0.44444444 -0.22222222      31  0.44444444  0.44444444  0.22222222
     619 -0.33333333 -0.44444444 -0.22222222      30  0.44444444  0.33333333  0.22222222
     620 -0.22222222 -0.44444444 -0.22222222      28  0.44444444  0.22222222  0.22222222
     621 -0.11111111 -0.44444444 -0.22222222      22  0.44444444  0.22222222  0.11111111
     622  0.00000000 -0.33333333 -0.22222222      11  0.33333333  0.22222222  0.00000000
     623  0.11111111 -0.33333333 -0.22222222      21  0.33333333  0.11111111  0.22222222
     624  0.22222222 -0.33333333 -0.22222222      27  0.22222222  0.22222222  0.33333333
     625  0.33333333 -0.33333333 -0.22222222      29  0.33333333  0.33333333  0.22222222
     626  0.44444444 -0.33333333 -0.22222222      30  0.44444444  0.33333333  0.22222222
     627 -0.44444444 -0.33333333 -0.22222222      30  0.44444444  0.33333333  0.22222222
     628 -0.33333333 -0.33333333 -0.22222222      29  0.33333333  0.33333333  0.22222222
     629 -0.22222222 -0.33333333 -0.22222222      27  0.22222222  0.22222222  0.33333333
     630 -0.11111111 -0.33333333 -0.22222222      21  0.33333333  0.11111111  0.22222222
     631  0.00000000 -0.22222222 -0.22222222      10  0.22222222  0.22222222  0.00000000
     632  0.11111111 -0.22222222 -0.22222222      20  0.22222222  0.22222222  0.11111111
     633  0.22222222 -0.22222222 -0.22222222      26  0.22222222  0.22222222  0.22222222
     634  0.33333333 -0.22222222 -0.22222222      27  0.22222222  0.22222222  0.33333333
     635  0.44444444 -0.22222222 -0.22222222      28  0.44444444  0.22222222  0.22222222
     636 -0.44444444 -0.22222222 -0.22222222      28  0.44444444  0.22222222  0.22222222
     637 -0.33333333 -0.22222222 -0.22222222      27  0.22222222  0.22222222  0.33333333
     638 -0.22222222 -0.22222222 -0.22222222      26  0.22222222  0.22222222  0.22222222
     639 -0.11111111 -0.22222222 -0.22222222      20  0.22222222  0.22222222  0.11111111
     640  0.00000000 -0.11111111 -0.22222222       7  0.22222222  0.11111111  0.00000000
     641  0.11111111 -0.11111111 -0.22222222      17  0.22222222  0.11111111  0.11111111
     642  0.22222222 -0.11111111 -0.22222222      20  0.22222222  0.22222222  0.11111111
     643  0.33333333 -0.11111111 -0.22222222      21  0.33333333  0.11111111  0.22222222
     644  0.44444444 -0.11111111 -0.22222222      22  0.44444444  0.22222222  0.11111111
     645 -0.44444444 -0.11111111 -0.22222222      22  0.44444444  0.22222222  0.11111111
     646 -0.33333333 -0.11111111 -0.22222222      21  0.33333333  0.11111111  0.22222222
     647 -0.22222222 -0.11111111 -0.22222222      20  0.22222222  0.22222222  0.11111111
     648 -0.11111111 -0.11111111 -0.22222222      17  0.22222222  0.11111111  0.11111111
     649  0.00000000  0.00000000 -0.11111111       2  0.11111111  0.00000000  0.00000000
     650  0.11111111  0.00000000 -0.11111111       6  0.11111111  0.11111111  0.00000000
     651  0.22222222  0.00000000 -0.11111111       7  0.22222222  0.11111111  0.00000000
     652  0.33333333  0.00000000 -0.11111111       8  0.33333333  0.11111111  0.00000000
     653  0.44444444  0.00000000 -0.11111111       9  0.44444444  0.11111111  0.00000000
     654 -0.44444444  0.00000000 -0.11111111       9  0.44444444  0.11111111  0.00000000
     655 -0.33333333  0.00000000 -0.11111111       8  0.33333333  0.11111111  0.00000000
     656 -0.22222222  0.00000000 -0.11111111       7  0.22222222  0.11111111  0.00000000
     657 -0.11111111  0.00000000 -0.11111111       6  0.11111111  0.11111111  0.00000000
     658  0.00000000  0.11111111 -0.11111111       6  0.11111111  0.11111111  0.00000000
     659  0.11111111  0.11111111 -0.11111111      16  0.11111111  0.11111111  0.11111111
     660  0.22222222  0.11111111 -0.11111111      17  0.22222222  0.11111111  0.11111111
     661  0.33333333  0.11111111 -0.11111111      18  0.33333333  0.11111111  0.11111111
     662  0.44444444  0.11111111 -0.11111111      19  0.11111111  0.11111111  0.44444444
     663 -0.44444444  0.11111111 -0.11111111      19  0.11111111  0.11111111  0.44444444
     664 -0.33333333  0.11111111 -0.11111111      18  0.33333333  0.11111111  0.11111111
     665 -0.22222222  0.11111111 -0.11111111      17  0.22222222  0.11111111  0.11111111
     666 -0.11111111  0.11111111 -0.11111111      16  0.11111111  0.11111111  0.11111111
     667  0.00000000  0.22222222 -0.11111111       7  0.22222222  0.11111111  0.00000000
     668  0.11111111  0.22222222 -0.11111111      17  0.22222222  0.11111111  0.11111111
     669  0.22222222  0.22222222 -0.11111111      20  0.22222222  0.22222222  0.11111111
     670  0.33333333  0.22222222 -0.11111111      21  0.33333333  0.11111111  0.22222222
     671  0.44444444  0.22222222 -0.11111111      22  0.44444444  0.22222222  0.11111111
     672 -0.44444444  0.22222222 -0.11111111      22  0.44444444  0.22222222  0.11111111
     673 -0.33333333  0.22222222 -0.11111111      21  0.33333333  0.11111111  0.22222222
     674 -0.22222222  0.22222222 -0.11111111      20  0.22222222  0.22222222  0.11111111
     675 -0.11111111  0.22222222 -0.11111111      17  0.22222222  0.11111111  0.11111111
     676  0.00000000  0.33333333 -0.11111111       8  0.33333333  0.11111111  0.00000000
     677  0.11111111  0.33333333 -0.11111111      18  0.33333333  0.11111111  0.11111111
     678  0.22222222  0.33333333 -0.11111111      21  0.33333333  0.11111111  0.22222222
     679  0.33333333  0.33333333 -0.11111111      23  0.33333333  0.11111111  0.33333333
     680  0.44444444  0.33333333 -0.11111111      24  0.44444444  0.33333333  0.11111111
     681 -0.44444444  0.33333333 -0.11111111      24  0.44444444  0.33333333  0.11111111
     682 -0.33333333  0.33333333 -0.11111111      23  0.33333333  0.11111111  0.33333333
     683 -0.22222222  0.33333333 -0.11111111      21  0.33333333  0.11111111  0.22222222
     684 -0.11111111  0.33333333 -0.11111111      18  0.33333333  0.11111111  0.11111111
     685  0.00000000  0.44444444 -0.11111111       9  0.44444444  0.11111111  0.00000000
     686  0.11111111  0.44444444 -0.11111111      19  0.11111111  0.11111111  0.44444444
     687  0.22222222  0.44444444 -0.11111111      22  0.44444444  0.22222222  0.11111111
     688  0.33333333  0.44444444 -0.11111111      24  0.44444444  0.33333333  0.11111111
     689  0.44444444  0.44444444 -0.11111111      25  0.44444444  0.44444444  0.11111111
     690 -0.44444444  0.44444444 -0.11111111      25  0.44444444  0.44444444  0.11111111
     691 -0.33333333  0.44444444 -0.11111111      24  0.44444444  0.33333333  0.11111111
     692 -0.22222222  0.44444444 -0.11111111      22  0.44444444  0.22222222  0.11111111
     693 -0.11111111  0.44444444 -0.11111111      19  0.11111111  0.11111111  0.44444444
     694  0.00000000 -0.44444444 -0.11111111       9  0.44444444  0.11111111  0.00000000
     695  0.11111111 -0.44444444 -0.11111111      19  0.11111111  0.11111111  0.44444444
     696  0.22222222 -0.44444444 -0.11111111      22  0.44444444  0.22222222  0.11111111
     697  0.33333333 -0.44444444 -0.11111111      24  0.44444444  0.33333333  0.11111111
     698  0.44444444 -0.44444444 -0.11111111      25  0.44444444  0.44444444  0.11111111
     699 -0.44444444 -0.44444444 -0.11111111      25  0.44444444  0.44444444  0.11111111
     700 -0.33333333 -0.44444444 -0.11111111      24  0.44444444  0.33333333  0.11111111
     701 -0.22222222 -0.44444444 -0.11111111      22  0.44444444  0.22222222  0.11111111
     702 -0.11111111 -0.44444444 -0.11111111      19  0.11111111  0.11111111  0.44444444
     703  0.00000000 -0.33333333 -0.11111111       8  0.33333333  0.11111111  0.00000000
     704  0.11111111 -0.33333333 -0.11111111      18  0.33333333  0.11111111  0.11111111
     705  0.22222222 -0.33333333 -0.11111111      21  0.33333333  0.11111111  0.22222222
     706  0.33333333 -0.33333333 -0.11111111      23  0.33333333  0.11111111  0.33333333
     707  0.44444444 -0.33333333 -0.11111111      24  0.44444444  0.33333333  0.11111111
     708 -0.44444444 -0.33333333 -0.11111111      24  0.44444444  0.33333333  0.11111111
     709 -0.33333333 -0.33333333 -0.11111111      23  0.33333333  0.11111111  0.33333333
     710 -0.22222222 -0.33333333 -0.11111111      21  0.33333333  0.11111111  0.22222222
     711 -0.11111111 -0.33333333 -0.11111111      18  0.33333333  0.11111111  0.11111111
     712  0.00000000 -0.22222222 -0.11111111       7  0.22222222  0.11111111  0.00000000
     713  0.11111111 -0.22222222 -0.11111111      17  0.22222222  0.11111111  0.11111111
     714  0.22222222 -0.22222222 -0.11111111      20  0.22222222  0.22222222  0.11111111
     715  0.33333333 -0.22222222 -0.11111111      21  0.33333333  0.11111111  0.22222222
     716  0.44444444 -0.22222222 -0.11111111      22  0.44444444  0.22222222  0.11111111
     717 -0.44444444 -0.22222222 -0.11111111      22  0.44444444  0.22222222  0.11111111
     718 -0.33333333 -0.22222222 -0.11111111      21  0.33333333  0.11111111  0.22222222
     719 -0.22222222 -0.22222222 -0.11111111      20  0.22222222  0.22222222  0.11111111
     720 -0.11111111 -0.22222222 -0.11111111      17  0.22222222  0.11111111  0.11111111
     721  0.00000000 -0.11111111 -0.11111111       6  0.11111111  0.11111111  0.00000000
     722  0.11111111 -0.11111111 -0.11111111      16  0.11111111  0.11111111  0.11111111
     723  0.22222222 -0.11111111 -0.11111111      17  0.22222222  0.11111111  0.11111111
     724  0.33333333 -0.11111111 -0.11111111      18  0.33333333  0.11111111  0.11111111
     725  0.44444444 -0.11111111 -0.11111111      19  0.11111111  0.11111111  0.44444444
     726 -0.44444444 -0.11111111 -0.11111111      19  0.11111111  0.11111111  0.44444444
     727 -0.33333333 -0.11111111 -0.11111111      18  0.33333333  0.11111111  0.11111111
     728 -0.22222222 -0.11111111 -0.11111111      17  0.22222222  0.11111111  0.11111111
     729 -0.11111111 -0.11111111 -0.11111111      16  0.11111111  0.11111111  0.11111111

